%%MatrixMarket matrix array complex general
%
1000 1
2.007542665421854E-11 0
4.2175458684139825E-13 0
7.472201452732709E-11 0
7.330235598986549E-10 0
6.083865406877181E-10 0
9.914696209738322E-11 0
4.3017766539973094E-10 0
3.6379070057109575E-14 0
5.282128694196371E-12 0
3.625853675906821E-15 0
2.2317205231496917E-10 0
2.306922715125102E-14 0
1.3395558508751186E-10 0
1.379000815316121E-9 0
5.223987024924953E-9 0
8.887590536992168E-12 0
8.1447411019376E-13 0
8.430803609106298E-13 0
5.9988402532803015E-12 0
6.922983503765028E-11 0
3.032652108218291E-11 0
2.0551426044832953E-9 0
8.229795676093561E-9 0
2.1654651090427137E-10 0
8.598552212899765E-12 0
3.996958324100816E-11 0
3.351471728682601E-11 0
2.4916737391938986E-11 0
4.282106836679058E-10 0
1.1872857205082977E-10 0
1.1323638824818666E-10 0
6.337787856334005E-12 0
3.736356418242462E-12 0
9.838097163996718E-11 0
1.1092288857522578E-10 0
1.7688243653178221E-10 0
5.931174862196292E-10 0
1.9443026484407493E-9 0
6.1397293156036E-9 0
1.7878336459621294E-8 0
4.5796935655351E-8 0
2.9131265158399156E-9 0
4.008307578958178E-8 0
1.2621903510028052E-10 0
3.7112261236594717E-10 0
2.322334736937836E-10 0
8.639458337367179E-11 0
8.842151183189438E-9 0
3.927869999244172E-10 0
1.300368998299517E-9 0
2.0308279541451744E-9 0
2.3861326498324346E-9 0
5.214962423142603E-10 0
1.574136464054318E-9 0
2.0330386071530317E-9 0
1.8435215812137625E-9 0
4.987422553668241E-8 0
2.453651142288712E-10 0
1.1966365519959081E-8 0
3.094925798755463E-8 0
1.2327507251546666E-10 0
3.29924883721275E-8 0
2.512951023551664E-8 0
4.877697431581784E-8 0
3.386005744356603E-8 0
6.916073214151701E-8 0
7.61416779334676E-9 0
1.7183660735521522E-9 0
3.21357638840867E-9 0
2.8149031041209876E-10 0
1.1791020253424158E-9 0
8.831274353863242E-8 0
1.2427172092015286E-7 0
9.88424008726705E-9 0
2.142289800625683E-8 0
7.198393150070772E-9 0
2.2772898347446706E-10 0
8.259619291011967E-9 0
2.4610502340576744E-9 0
4.525187941180963E-8 0
1.3812476324115494E-10 0
4.334974048128367E-8 0
1.4713721283818577E-7 0
3.981335793089698E-9 0
4.552297995408556E-9 0
1.3356160605169677E-7 0
1.3155402315819449E-7 0
1.687755733416272E-11 0
3.836214726904913E-10 0
3.9716213619581706E-10 0
1.3873850593528716E-8 0
1.591137794161304E-8 0
1.7056042866011588E-8 0
1.408801696377833E-8 0
9.286525187860736E-9 0
1.1896512858863626E-8 0
2.4514809013535365E-8 0
2.4711003608709474E-8 0
1.2649344003400202E-8 0
1.467845858300886E-8 0
1.0782076253315918E-7 0
2.0786998142737147E-8 0
4.899880107172916E-9 0
4.6860701927292774E-11 0
1.444537005077193E-7 0
1.1101332948647588E-7 0
2.703516668330727E-7 0
2.0087970371034776E-7 0
9.296189894571243E-8 0
1.2477932586566192E-7 0
2.0618218141176472E-7 0
2.963184711644673E-7 0
1.0147479073262328E-11 0
1.4426054498858674E-11 0
8.899885952760174E-11 0
1.1038247262816567E-9 0
5.72789878554784E-9 0
2.7649724212232243E-7 0
1.3079788066751045E-9 0
1.4116896574820602E-8 0
5.425041438619656E-11 0
5.918082838919751E-11 0
3.998677105384101E-11 0
2.1074174325601128E-7 0
6.608163027959622E-8 0
9.34951768466419E-8 0
4.358611051538891E-8 0
1.0189001544960326E-7 0
3.8929793644610677E-8 0
7.228309044094986E-8 0
1.627790439164349E-7 0
3.048286117598976E-7 0
4.837075296858381E-7 0
6.243943096905875E-10 0
6.190220304545361E-10 0
2.4903151526468074E-7 0
2.0933466932187806E-9 0
8.035803065259615E-8 0
1.4624254896078126E-7 0
5.63110426563444E-9 0
1.7011390685806583E-9 0
3.8939378426627166E-8 0
5.028814687453443E-7 0
2.3059864990519045E-7 0
2.6181391230963637E-9 0
3.9041774269717274E-8 0
3.8093010547537863E-10 0
4.5950265350438315E-8 0
8.872002566129866E-8 0
1.3942197840111052E-10 0
5.060665924260391E-7 0
3.770742835537446E-10 0
5.43141851432029E-10 0
2.0737717035480685E-7 0
2.107486633546515E-8 0
3.005192238336453E-8 0
1.4416176691825251E-9 0
4.876322442196536E-8 0
3.6667393743233496E-7 0
1.970318779650364E-9 0
3.3132055529807326E-8 0
4.068323938474613E-9 0
7.015641398219207E-8 0
2.8688485603731618E-8 0
8.73280530336179E-11 0
3.2823111080978318E-9 0
2.130352608659878E-8 0
8.416906801100847E-9 0
1.586368764156159E-7 0
1.3637741434028512E-9 0
4.713276194306323E-10 0
3.71945623699913E-10 0
1.8484697444592037E-9 0
2.908054268396747E-9 0
1.0712128662665691E-9 0
5.400709070645567E-9 0
5.511208953182812E-7 0
5.587499065832352E-7 0
5.843534450118843E-7 0
5.59817671494316E-7 0
4.652764127070854E-7 0
3.236573741650502E-7 0
1.5682042745225817E-9 0
7.221540633411016E-7 0
7.386908294766884E-9 0
7.21497274636474E-8 0
1.243539471935514E-8 0
2.7615619494753387E-9 0
2.950724752518669E-9 0
1.9241496039791265E-8 0
8.445755927060537E-10 0
5.815180052983078E-7 0
4.400947945687409E-7 0
1.9580334635599525E-7 0
4.1458457884029944E-7 0
1.28033906590456E-6 0
1.5646713531756877E-8 0
2.0754990717640908E-9 0
5.520833384682437E-9 0
1.4407930838751915E-9 0
1.058387965466166E-9 0
7.3337867919373E-10 0
5.547047786621515E-10 0
4.0433275532949164E-10 0
2.2709057312233616E-10 0
1.8233462989597726E-10 0
3.6875319629578035E-10 0
7.242499413714706E-10 0
2.014300139172562E-9 0
3.071731204486052E-10 0
4.675504148560459E-9 0
4.962753191288019E-7 0
4.5487172840647865E-9 0
2.0812511143282997E-9 0
1.898094667355396E-9 0
1.7438498324150152E-8 0
7.603117559212196E-8 0
8.277690961508297E-8 0
4.460326406069573E-8 0
3.502790583490341E-8 0
4.7565267426956015E-8 0
6.547322510973499E-8 0
8.757914873608394E-8 0
1.0730186900851662E-7 0
1.0773391797845074E-7 0
3.145765404217442E-7 0
2.3370014188088532E-7 0
1.581563754103112E-7 0
9.27674574477083E-8 0
4.336336802519841E-8 0
1.4113875752120172E-8 0
5.029830380841213E-9 0
8.41607474052697E-9 0
1.3938524065457115E-8 0
2.734252479238159E-8 0
2.0656259702030295E-9 0
1.8126056639416398E-9 0
8.797750671679766E-10 0
1.1306506427899335E-6 0
1.858598146415762E-8 0
2.7061044286016405E-8 0
3.7140080220855224E-8 0
4.824012013193216E-8 0
5.9378359401879225E-8 0
6.928878048278501E-8 0
7.643766943853326E-8 0
7.932389310799727E-8 0
9.482484439550281E-8 0
1.3590439376908738E-7 0
1.875262471239292E-7 0
2.464816081083246E-7 0
6.293723599519945E-8 0
3.810275725471256E-8 0
4.760198010137085E-8 0
1.1018986073417567E-6 0
9.951911599189E-9 0
8.86407490987338E-7 0
8.135074538640013E-7 0
1.178751055956474E-6 0
9.773362922136114E-7 0
4.961172365768131E-8 0
3.768237112195411E-8 0
1.786014644741293E-8 0
5.639090973607616E-9 0
6.206868341996672E-7 0
9.390910146499354E-7 0
1.1497803648491178E-6 0
1.1798267683556838E-6 0
1.0376393269637318E-6 0
4.557419340614165E-9 0
7.659386446287925E-9 0
2.0144249404789588E-7 0
8.385471511095167E-9 0
2.3594136525189977E-8 0
4.045085507169398E-8 0
3.6761612492179814E-8 0
1.4895779621306974E-8 0
3.9435874107244624E-9 0
6.527452283890235E-8 0
6.491855964213293E-7 0
1.573970612027008E-7 0
2.4174038919807667E-7 0
1.2487613224070425E-9 0
1.6466309045412722E-7 0
2.936573078859111E-9 0
4.0507278300468695E-8 0
6.8921549060908364E-9 0
1.483039369486407E-10 0
2.4369471758272827E-8 0
1.185907513551634E-8 0
1.2898139834478399E-8 0
2.9955872223563354E-8 0
8.62273994946923E-9 0
8.438209619348431E-10 0
3.4913619609310016E-9 0
3.7146036094274563E-10 0
4.8503576783124165E-9 0
2.1577468542981637E-7 0
2.1686883405635672E-7 0
4.992228400931614E-7 0
5.9472912628601855E-8 0
4.804588759652607E-8 0
8.996221932426227E-9 0
5.3345477021362424E-8 0
2.9658575531800846E-6 0
2.934268940009368E-8 0
4.01966112701256E-8 0
2.6466762546749252E-6 0
5.791643550251703E-7 0
2.9416101915641226E-8 0
1.1141977123124118E-8 0
7.1134892974082754E-9 0
9.939916828690715E-9 0
6.69224218027943E-7 0
7.81939923079123E-9 0
3.196642078455074E-6 0
8.51472976436095E-8 0
1.0250177411560618E-6 0
2.3432006423736255E-8 0
9.779600746197194E-7 0
2.7900362978685224E-7 0
4.5901956075161605E-10 0
1.9118611751826346E-7 0
1.953113769985467E-6 0
1.5637407160118063E-9 0
3.2858661496721758E-6 0
4.4961061291546544E-7 0
1.286294351679469E-7 0
4.597256426064333E-7 0
3.68337018022649E-8 0
3.2434307258561055E-8 0
1.454731485867188E-7 0
5.11243422609929E-7 0
7.625596723039861E-7 0
8.745933052928936E-7 0
7.221479338345036E-7 0
1.2850958705768664E-8 0
5.360904974026784E-8 0
9.971189209185725E-8 0
1.080264735639672E-7 0
6.87764098644229E-9 0
5.424953271938967E-9 0
8.774802779543842E-7 0
7.51836424023817E-7 0
6.248305857505286E-7 0
5.05001421856899E-7 0
3.969117752434165E-7 0
3.0155569214128467E-7 0
2.2245188327389682E-7 0
1.5897638659308948E-7 0
1.1097384035605363E-7 0
2.528128480018395E-7 0
1.0417110614018383E-6 0
3.463366166946615E-7 0
8.980276267465829E-8 0
2.289529505911036E-8 0
1.0354751394824717E-7 0
3.405642796818959E-7 0
8.21197993820036E-7 0
4.026735453687952E-6 0
9.02608886994583E-9 0
9.77463080176183E-9 0
2.9581075306316402E-8 0
2.6316346085957956E-8 0
3.9506958098853575E-7 0
2.967163095611063E-6 0
2.8685652310996165E-9 0
8.889279505418642E-8 0
1.6071873265614672E-8 0
8.235656566317419E-9 0
4.4831420865782896E-8 0
5.7862244582307785E-8 0
3.599881719798853E-7 0
3.359870471440502E-7 0
4.5574303293112854E-6 0
1.0135022006697753E-6 0
6.264346019224308E-7 0
2.501781686063466E-7 0
3.750293485536105E-7 0
2.582291718220048E-7 0
6.760089634639112E-9 0
4.56526536643418E-7 0
3.055707027494372E-6 0
2.4293926517907964E-6 0
1.9312773663287427E-6 0
1.4985254918499175E-6 0
1.128120015107334E-6 0
8.212060296871136E-7 0
1.0106858217704557E-6 0
1.2466104866918076E-6 0
1.3996606551871066E-6 0
1.4572239681567425E-6 0
1.968011813662467E-6 0
4.587175301224971E-6 0
6.816989722985542E-9 0
1.4954848430007997E-8 0
2.9730162026489573E-8 0
5.502423647854851E-8 0
9.669449883870017E-8 0
1.6173897769692485E-7 0
2.582072850943048E-7 0
3.92628077608807E-7 0
5.752848098330904E-7 0
3.6179151588449923E-6 0
2.7308966828194764E-6 0
2.0069532049522722E-6 0
7.428049850702234E-8 0
1.1529061502589954E-7 0
1.6908218320313995E-7 0
2.3469538096381934E-7 0
3.0839658409281933E-7 0
3.865986771010125E-7 0
4.6310717844196893E-7 0
5.308965252732239E-7 0
5.865692056637253E-7 0
6.26300850071779E-7 0
5.683245727550391E-7 0
9.137447590433008E-7 0
1.29224957824571E-6 0
1.6845579533125426E-6 0
2.0555318342491066E-6 0
2.3886050093397544E-6 0
2.661807312735404E-6 0
2.13799757613443E-8 0
1.2564625042465596E-8 0
9.343560205735792E-9 0
9.964986216343583E-9 0
1.1476339495907776E-6 0
2.4413456145474343E-6 0
4.579078041382179E-6 0
7.334514795408621E-6 0
3.2559580724889506E-8 0
4.799137461307864E-8 0
6.436132871843289E-8 0
6.795466820111111E-7 0
7.053833648523314E-7 0
6.425215351507652E-7 0
5.153760246969468E-7 0
4.377638221870068E-7 0
5.9536620080905534E-6 0
5.688945274452541E-6 0
3.296506925560441E-6 0
1.2345141369875877E-7 0
1.0838631669820493E-7 0
3.887887483270151E-7 0
9.039922845112603E-7 0
5.770759129300623E-7 0
4.489167266261752E-8 0
1.1477078616656777E-8 0
1.6847602816344737E-8 0
5.151483797013365E-9 0
6.142637718220084E-8 0
4.42761577717664E-7 0
2.0082933890943277E-7 0
4.177898796266014E-7 0
4.573933445603348E-7 0
2.7027738085651324E-7 0
1.0236038188675363E-7 0
3.223313176567098E-8 0
1.0090155679031069E-8 0
2.3696857706511122E-8 0
3.372119624173231E-8 0
3.583351184993372E-8 0
3.1239903410016594E-8 0
4.822464915955456E-8 0
1.941155292743155E-7 0
9.492749503272041E-7 0
2.6760126576925646E-6 0
1.1102639249216373E-7 0
4.5330494725834154E-9 0
1.6331112983959633E-8 0
9.791579291939824E-7 0
4.905289283167944E-6 0
8.501846053713737E-9 0
9.074252420264787E-10 0
6.921181368925368E-6 0
2.619352284033955E-8 0
1.9521574984863787E-8 0
9.246508477572653E-9 0
7.820797910041053E-7 0
1.3602881088356412E-6 0
7.484943589947712E-6 0
4.609002539923839E-7 0
1.2532166429009315E-6 0
2.045424860986556E-6 0
2.3347555091647186E-6 0
4.037154860093128E-7 0
3.582234844258279E-7 0
2.974013024961366E-7 0
2.3048925525550986E-7 0
1.632827025698263E-7 0
3.354449804371468E-7 0
5.617185513342715E-7 0
6.7166983722292E-7 0
6.169150235529913E-7 0
1.4766600630137773E-7 0
1.4826559403028783E-7 0
1.4871776176793902E-7 0
1.4898640086855222E-7 0
1.4896262114237397E-7 0
1.4871856093342516E-7 0
1.4828765551641855E-7 0
1.4753033102164284E-7 0
1.4662784300891216E-7 0
1.4536796091171466E-7 0
1.4381313531482383E-7 0
1.420527664196998E-7 0
1.4001317007064832E-7 0
1.3766409607557817E-7 0
1.3502134860900898E-7 0
1.3203532437866946E-7 0
1.2887137093212403E-7 0
1.2528077622685197E-7 0
1.2150792944515063E-7 0
1.174613127399974E-7 0
1.1302867684738813E-7 0
1.0841033943961054E-7 0
1.0357904761851687E-7 0
9.851886827989466E-8 0
9.321848285830805E-8 0
8.780497601331438E-8 0
8.222436940248033E-8 0
7.648827977441265E-8 0
7.076609375111923E-8 0
6.494483116471868E-8 0
8.51338594378715E-7 0
7.310354837580228E-7 0
5.540292158627233E-7 0
3.507006208114076E-7 0
1.9914072509921644E-6 0
1.2769428192658548E-6 0
1.465386104753235E-6 0
1.5165540416324376E-6 0
1.1904203174225894E-6 0
1.3884452586239767E-6 0
1.5729234753201881E-6 0
2.8362091266776936E-6 0
2.438810887083699E-6 0
1.1899687885099159E-6 0
2.0175206027556827E-6 0
2.3986000315215495E-6 0
1.6420859423555276E-7 0
6.197893315920971E-9 0
3.1375018352871094E-9 0
4.809923984525218E-6 0
2.1277795092889165E-7 0
2.464034962842247E-7 0
6.480339465827985E-6 0
1.2430167100665402E-8 0
8.210761925202595E-6 0
4.1479391806288266E-8 0
3.4791382793968763E-6 0
3.123046786985192E-6 0
3.529505359346048E-7 0
9.65736661333796E-7 0
1.4099522403512404E-6 0
1.2008231108601973E-6 0
5.044321429763881E-7 0
6.823763757372541E-7 0
8.671555514988297E-7 0
8.622994488689651E-7 0
7.750309071722312E-7 0
6.308881772154936E-7 0
5.985269923113877E-8 0
8.316775567371447E-8 0
1.034446165859363E-7 0
1.1779365469230906E-7 0
1.249537506372627E-7 0
1.2426233518427972E-7 0
1.1590640273367364E-7 0
3.0049177844122034E-6 0
4.418642564305913E-6 0
9.891277116718617E-8 0
7.301591369114077E-8 0
8.792888957261338E-6 0
5.6888462281205125E-6 0
3.435320039121442E-6 0
1.888102610039839E-6 0
1.117486747494437E-6 0
7.860289507343174E-7 0
9.128551921678263E-7 0
1.041889372771842E-6 0
1.1695722093891414E-6 0
1.2928407386010596E-6 0
1.411397673476174E-6 0
1.524878728199364E-6 0
1.6352347680247231E-6 0
1.7704797480396124E-6 0
2.1220145752817886E-6 0
2.4806733817179567E-6 0
2.8470330922848684E-6 0
2.1548539831835223E-6 0
1.2769278273064428E-6 0
1.2471397458678216E-6 0
1.3649358044647036E-6 0
1.4012407484979489E-6 0
1.3632213198687058E-6 0
1.266750588151597E-6 0
1.1352519352664348E-6 0
9.929278420168291E-7 0
4.339182514929989E-6 0
4.167425727502346E-6 0
3.803069384432462E-6 0
3.4050273767812403E-6 0
2.868343831525758E-6 0
2.2593301657073112E-6 0
2.1950804063266725E-6 0
6.533811412102798E-7 0
6.518328142518831E-7 0
5.581313645316365E-7 0
4.488255729091598E-6 0
1.3962762714612574E-7 0
5.846146477952553E-7 0
2.023651988471161E-7 0
3.86928146011969E-6 0
3.9678634697060326E-6 0
2.0627486298146795E-6 0
2.4733578374833756E-7 0
1.383414212459488E-6 0
3.3757045968796487E-6 0
1.9318768920940034E-7 0
6.729481068978733E-7 0
7.407312152273985E-7 0
9.616088086856791E-8 0
3.3638906084004313E-6 0
2.163950896281911E-6 0
7.933265607554105E-6 0
1.1613039458949568E-6 0
5.2097104424350245E-8 0
1.5057214592512103E-6 0
2.3892725709924964E-8 0
3.6195133889827544E-6 0
2.3731168443484286E-7 0
8.4360794556478E-9 0
5.947241534267365E-8 0
4.897467808710129E-7 0
3.1693578554338535E-6 0
8.647608378741021E-6 0
6.0987726248121595E-6 0
2.3170857531849603E-6 0
9.081296808688385E-8 0
5.064326330379566E-6 0
4.56623727256702E-7 0
2.7601790845886796E-7 0
2.2020243659947534E-6 0
2.2079691717504805E-6 0
1.9782589364248636E-6 0
1.592895139762526E-6 0
6.825020682856039E-6 0
4.745595359395202E-6 0
3.7523367950068146E-6 0
3.1656888848849147E-6 0
3.0981548411044665E-6 0
3.4413970459448246E-6 0
3.7248866260684624E-6 0
3.940859861110793E-6 0
4.080135851572316E-6 0
4.134763080957077E-6 0
4.106360825419806E-6 0
3.9923810560946966E-6 0
3.8022108110553343E-6 0
4.3601984746101995E-6 0
3.7290453570300463E-6 0
8.452121327858303E-6 0
2.547599839381346E-6 0
7.552698407043595E-6 0
2.676816269708256E-7 0
1.365237403342119E-5 0
5.186872811757345E-6 0
9.485303970407948E-6 0
7.832538619252609E-6 0
8.394656733964426E-6 0
1.4208802041797922E-5 0
2.606423119167107E-7 0
6.33334589764434E-7 0
1.3040332976879234E-6 0
2.2191601293947093E-6 0
3.3550211635145012E-6 0
5.165629393766213E-6 0
3.976976062513302E-6 0
3.2619651585262356E-6 0
3.2379726369065857E-6 0
3.5004466437929112E-6 0
3.7543343821009792E-6 0
4.001341866254223E-6 0
4.246264486645245E-6 0
4.48783039370997E-6 0
4.7255839487055724E-6 0
5.325377686722264E-6 0
6.759467025843719E-6 0
8.638440667890654E-6 0
1.116473990260658E-5 0
1.1443415131434957E-5 0
1.0192441860519433E-5 0
9.731307855141843E-6 0
9.239089339587917E-6 0
8.73929974798415E-6 0
8.317158745188674E-6 0
8.058023428674578E-6 0
7.814839560582978E-6 0
7.583694689825411E-6 0
7.449522028922723E-6 0
7.89407391466046E-6 0
8.320342870829657E-6 0
8.70273706743855E-6 0
9.050216482700963E-6 0
9.362081871372159E-6 0
9.622847827145902E-6 0
9.835766352064195E-6 0
1.000363392966586E-5 0
1.0106676756742918E-5 0
1.0160702391962543E-5 0
1.0155714559957347E-5 0
1.0090523618216907E-5 0
9.970378753602715E-6 0
9.800990782299297E-6 0
9.575727833186463E-6 0
1.0334849814550652E-5 0
1.2293452862676286E-5 0
1.4375639832380177E-5 0
9.774338939505181E-8 0
1.2281854158788273E-7 0
1.516626159428927E-7 0
1.8603431360182438E-7 0
2.249396794521934E-7 0
2.688580645968969E-7 0
3.201493882997223E-7 0
3.7786478520354696E-7 0
4.39278295080579E-7 0
5.079630083206533E-7 0
5.857585067983358E-7 0
8.669004245702173E-6 0
6.223457037731104E-6 0
6.404240349689941E-6 0
8.889189520165663E-6 0
1.2059161640677027E-5 0
1.3824408434382895E-5 0
1.215561010030702E-5 0
1.146515533027482E-5 0
1.0817056563028636E-5 0
1.0445548896330473E-5 0
1.0111960519403149E-5 0
9.822780848250712E-6 0
9.546530343323273E-6 0
9.299191879965415E-6 0
9.068916773194674E-6 0
8.971746305115477E-6 0
9.080475507072453E-6 0
9.359735514507254E-6 0
9.61917834907744E-6 0
9.849231382381659E-6 0
1.0054465484036958E-5 0
1.0243968759573514E-5 0
1.040458118828854E-5 0
1.0548876047648928E-5 0
1.0658672931205474E-5 0
1.075571492117501E-5 0
1.0826670300760231E-5 0
1.0877324965610584E-5 0
1.090144260075174E-5 0
1.0906955439840262E-5 0
1.089540099615319E-5 0
1.0858486531293264E-5 0
1.0809960593314606E-5 0
1.0745905770800994E-5 0
1.06591072956496E-5 0
1.0548115942411333E-5 0
1.0433949524830168E-5 0
1.0308294867090838E-5 0
1.015236576801373E-5 0
1.0261803601058271E-5 0
1.1269589243614761E-5 0
1.226908969956272E-5 0
1.3317511077790272E-5 0
1.4425391340465389E-5 0
1.556529562622038E-5 0
1.221341339437456E-7 0
1.3758411320701997E-7 0
1.5329867319805455E-7 0
1.710587486648872E-7 0
1.9002754224804771E-7 0
2.0927857722063425E-7 0
2.3097238565163566E-7 0
2.53946518612668E-7 0
2.791769540314095E-7 0
3.084491700841279E-7 0
3.3823550482334444E-7 0
3.7013976634088725E-7 0
4.047050411857489E-7 0
4.4135619717514603E-7 0
4.782842019801636E-7 0
5.199928306442352E-7 0
5.629542927382749E-7 0
6.053475914627776E-7 0
6.502471463561425E-7 0
6.965068197363506E-7 0
7.470494659734212E-7 0
7.991776771188134E-7 0
8.520147521211924E-7 0
9.075418836834986E-7 0
9.6584439323384E-7 0
1.0243701706084423E-6 0
1.0859653750280526E-6 0
1.1486499127634275E-6 0
1.2144370970118432E-6 0
1.2812633070187973E-6 0
1.3505659603559753E-6 0
1.4208381155824286E-6 0
1.4921854911921815E-6 0
1.5685870751839132E-6 0
1.6465406857438418E-6 0
1.7261047683890293E-6 0
1.8074577616099303E-6 0
1.8896363903933568E-6 0
1.9751767554527635E-6 0
2.0608087341338104E-6 0
2.146839141047687E-6 0
2.242431883868671E-6 0
2.282109175351813E-6 0
2.176638113676822E-6 0
2.0823929368017467E-6 0
1.9844983623894217E-6 0
1.891572833034807E-6 0
1.8039889406151112E-6 0
1.7125376494974089E-6 0
1.630866560725469E-6 0
1.5529257472602063E-6 0
1.4773664895415475E-6 0
1.4070503511622098E-6 0
1.3347567548573303E-6 0
1.2705874788580713E-6 0
1.2046397169846571E-6 0
1.1403597811403583E-6 0
1.164603568245399E-6 0
1.1893784574264168E-6 0
1.2136409747322755E-6 0
1.2372825218683388E-6 0
1.2604999808579626E-6 0
1.2800169337197001E-6 0
1.3003582035206317E-6 0
1.3197076020749079E-6 0
1.3369657677815853E-6 0
1.58738758917735E-6 0
1.6134323793969242E-6 0
1.6401012101986704E-6 0
1.6665489030910273E-6 0
1.6913210866247985E-6 0
1.7162611341634992E-6 0
1.738468679560862E-6 0
1.7632929726373305E-6 0
1.7856443913887535E-6 0
1.8087030254638162E-6 0
1.8305687580633626E-6 0
1.8508666523400017E-6 0
1.8723711130556456E-6 0
1.8904934607874539E-6 0
1.909784512382884E-6 0
1.929236273441663E-6 0
1.9464938112405807E-6 0
1.9649095427664375E-6 0
1.979248954755827E-6 0
1.9958291202103854E-6 0
2.009821025721246E-6 0
2.0270219021350326E-6 0
2.04035114698985E-6 0
2.0536551659682732E-6 0
2.065538614247883E-6 0
2.0800670210591063E-6 0
2.0887546041970515E-6 0
2.1010330620323386E-6 0
2.1109308076484046E-6 0
2.120913178125517E-6 0
2.1304192385869223E-6 0
2.140390970451953E-6 0
2.1458923929255406E-6 0
2.15418537527506E-6 0
2.160471658430885E-6 0
2.16657392791178E-6 0
2.17296237198487E-6 0
2.1771603961988486E-6 0
2.181787837438081E-6 0
2.18536385971856E-6 0
2.19012242535599E-6 0
2.192433993417303E-6 0
2.1945097099635604E-6 0
2.1956830702919E-6 0
2.199030946106399E-6 0
2.1991445889696937E-6 0
2.2000392434478935E-6 0
2.199110434445209E-6 0
2.1994242117177117E-6 0
2.198504518514858E-6 0
2.1965893084341476E-6 0
2.1949130771765096E-6 0
2.192380276905677E-6 0
2.187747799608848E-6 0
2.1850338483566333E-6 0
2.180025184858115E-6 0
2.176385661362784E-6 0
2.1710596227844217E-6 0
2.1678140441328914E-6 0
2.161806065296469E-6 0
2.1536470567390994E-6 0
2.1480879389680857E-6 0
2.1414817275952923E-6 0
2.1328738135256933E-6 0
2.124600834336882E-6 0
2.1164033219801885E-6 0
2.1070997064161296E-6 0
2.0972396364489328E-6 0
2.0878466731668476E-6 0
2.0782801363836026E-6 0
2.067179176785414E-6 0
2.0571107994394924E-6 0
2.044948952322066E-6 0
2.0338449618998453E-6 0
2.0211024019160345E-6 0
2.009631953644878E-6 0
1.9951776631519754E-6 0
1.9805464085676753E-6 0
1.966745785734561E-6 0
1.9534183536783732E-6 0
1.9382224320842743E-6 0
1.9239188018629498E-6 0
1.9056735253219503E-6 0
1.8910140205144105E-6 0
1.8747559265088167E-6 0
1.8578906341146418E-6 0
1.8420473428905843E-6 0
1.8245510954773086E-6 0
1.8062072569548973E-6 0
1.7874694711148544E-6 0
1.769952218847737E-6 0
1.7499746795389149E-6 0
1.7301963356213265E-6 0
1.71232878119596E-6 0
1.6910660681020911E-6 0
1.671297972283852E-6 0
1.6503704702214823E-6 0
1.6303784286762836E-6 0
1.6088960891666161E-6 0
1.5864808672553382E-6 0
1.564490181716998E-6 0
1.543937390360028E-6 0
1.5226537707468862E-6 0
1.4992041266211885E-6 0
1.4766682558804555E-6 0
1.4533629089075738E-6 0
1.1854462838524328E-6 0
1.1699993699817463E-6 0
1.1518810258238692E-6 0
1.1351001635257502E-6 0
1.1158541578791467E-6 0
1.0972490008876542E-6 0
1.0778852320122152E-6 0
1.0572147870698575E-6 0
1.03643493154226E-6 0
1.0150971012675508E-6 0
9.965415491897544E-7 0
1.0424452376378464E-6 0
1.0855528726820068E-6 0
1.1339859507178119E-6 0
1.1746833321779032E-6 0
1.2259914363050992E-6 0
1.2757818815474835E-6 0
1.3255240628103002E-6 0
1.3863849071068858E-6 0
1.4337003879444334E-6 0
1.4930332747052847E-6 0
1.5478640967877722E-6 0
1.6089968664525702E-6 0
1.6686495616568513E-6 0
1.7305902323694886E-6 0
1.798581497540236E-6 0
1.860463933111853E-6 0
1.978965911312936E-6 0
1.9131731474352257E-6 0
1.8508606995988127E-6 0
1.7870998961519736E-6 0
1.7194082781343654E-6 0
1.661013315443542E-6 0
1.6003408688249146E-6 0
1.5415796385604815E-6 0
1.4871547469450227E-6 0
1.4283277027760248E-6 0
1.3773194148354665E-6 0
1.32302735311524E-6 0
1.2704871294965944E-6 0
1.2184971889834627E-6 0
1.1677235228852988E-6 0
1.1202629147390583E-6 0
1.0729064135989453E-6 0
1.0264189481147083E-6 0
9.823231281345147E-7 0
9.399010987066555E-7 0
8.972938634176967E-7 0
8.553470705921819E-7 0
8.155851615100266E-7 0
7.745780146604166E-7 0
7.387464880529517E-7 0
