%%MatrixMarket matrix array real general
%
1000 1
4.9429745034473695E-11
1.9897548962280523E-13
7.517632736925452E-10
7.564588571168946E-10
2.8939489536495184E-12
6.021183711694015E-10
9.777392079334842E-11
4.6914457932488665E-9
1.671330301342151E-11
7.843538377096551E-11
5.6268980844167176E-11
8.77707390397749E-9
1.644747327748663E-11
8.519861897335634E-11
1.4260631234393635E-8
2.362891990185787E-8
6.690041511204975E-12
4.510497414907291E-10
1.3777484541224785E-8
2.8589182359168225E-10
5.114645726105828E-9
1.25976426810091E-10
2.5258167398464857E-11
4.521075427774478E-8
1.8167016259886742E-10
2.770387954848782E-8
1.3992727691258322E-10
1.5728658597497162E-10
3.3211616586993077E-10
5.4547171123927856E-12
2.3294124344506215E-10
4.793509357144057E-8
3.0549447165467355E-8
2.94230005035675E-10
9.90497672278963E-10
1.5390458875816974E-9
4.830825480873725E-11
2.5916611239689103E-8
1.0127987317194526E-7
3.6783406090632783E-9
1.4224333665303542E-7
1.0247814311147657E-8
8.672389836818061E-8
8.988598518294296E-12
1.630267301454795E-10
1.0056228445195232E-8
1.1860384005285898E-8
4.321561096667091E-9
1.8344929072073905E-7
1.5331898675894955E-8
5.0467087126134086E-9
4.1215520858246556E-11
1.6838743152642556E-7
1.1761116163841358E-7
6.585591683946724E-8
1.2597534498563201E-7
1.8612848160435555E-7
4.071646844417162E-7
3.481372964751429E-9
1.3621716855581723E-8
1.202153314622637E-10
3.8143504716791167E-7
7.301437995053522E-8
1.1962330038322678E-7
9.574582336289017E-8
4.282714101749583E-7
1.2986517492663807E-9
5.574283604482563E-7
8.730149384890342E-8
2.759656970681338E-10
2.1051204234605573E-9
3.7704952994673094E-7
4.0671617426223574E-10
4.6305969625939446E-11
1.4614947438928802E-10
8.951910551032945E-11
4.362201913379775E-8
2.2763493663154587E-8
9.503706401648E-8
1.0898462765654273E-7
1.5329929698478535E-8
4.2500826679481154E-7
8.522979919417959E-9
4.6101789699044486E-8
1.4385198461002651E-9
1.916132677992578E-9
2.9891570320741523E-9
9.840975561856468E-7
8.949125031376175E-7
7.661484488338512E-7
8.023949033428647E-7
5.966076665329479E-7
2.0809942428314617E-7
3.153860840402933E-9
1.0353321081860927E-8
9.745423182413326E-8
7.786493672322885E-7
1.1420095291992122E-6
6.511155428631928E-9
3.1880796489287406E-9
1.1744794796437246E-9
3.3977181966322685E-10
2.129123537862935E-10
1.04888467799049E-9
8.548471733076473E-10
5.983272119248575E-7
7.509469242178003E-10
2.4769474045147637E-8
2.479714462811177E-7
8.153797557079623E-9
1.0936040249633291E-8
2.9101979402171172E-8
6.125975977288004E-7
3.428098165887104E-7
1.1976439416507482E-7
1.1023393888726683E-8
9.699604089690865E-8
5.2871347202605446E-9
1.1622360605109653E-9
5.96840447677095E-8
9.551149004680198E-8
1.2486342442729646E-7
1.306311252059476E-7
2.5074645536773686E-7
4.780669978671816E-8
5.9326111449049E-8
1.2279431923323043E-8
1.1206289037266444E-6
1.7591873694276587E-6
7.007693560084793E-8
2.0626605025221703E-8
1.1790658249625017E-6
1.7945181414765805E-6
1.9884043320234767E-6
6.39364978102001E-7
4.2812656223615054E-8
9.251585406979581E-8
9.400272932634135E-9
1.1328479132402978E-6
2.6426581893393275E-7
1.00385143726925E-6
1.233909528632539E-7
1.7000434750436434E-9
3.2843139315112475E-9
1.3030015935843637E-8
9.914909729983649E-9
1.455014694429002E-8
8.20147003039853E-9
9.76934846201885E-9
1.4172934108471045E-6
1.2949752762887518E-7
8.900648982059064E-8
7.64574988654363E-9
6.78285940755434E-8
2.2772226770036765E-7
4.246084324276731E-7
1.868478758355802E-10
2.9255936627596873E-8
2.867736096899753E-7
4.700955585986568E-7
1.3011888465069066E-9
3.0680101194210534E-6
5.21606891369978E-7
6.962559899343104E-8
2.817242827792887E-7
1.099847916422864E-6
1.7459701906370953E-8
1.3343471154056858E-7
1.2749220766150197E-7
1.7092415638449855E-8
8.672467916573305E-7
5.892336701498687E-7
3.6221535681239386E-7
2.0035227713956246E-7
7.780309121130869E-7
3.664031518420417E-7
7.105140015619313E-8
6.060769966197359E-7
3.843551113058052E-6
1.874708967476227E-8
5.2193100154887824E-8
1.9804349126813543E-7
6.812227808498718E-7
1.2048091592035517E-9
6.720255713436614E-8
1.1591151793121576E-6
1.2234249167714702E-6
4.889022919483081E-6
5.7192173067869E-7
6.467052789655564E-8
4.850317482999989E-6
2.975183357885066E-6
1.9992834973763607E-6
2.4441108374350965E-6
3.012940039408722E-6
3.1015888535722463E-6
1.5183358657335974E-8
5.266397783128091E-8
1.4525344747250475E-7
3.4123947126369696E-7
6.972673205391036E-7
6.258926799916468E-6
4.173891732294955E-6
1.6731699888681333E-7
3.196555261978342E-7
5.286022384817358E-7
7.732971075344131E-7
1.0240425173583668E-6
1.2550765149931777E-6
1.2044395318495006E-6
1.9919562572543417E-6
2.7328251001094522E-6
3.3071632739790646E-6
6.429951848261805E-8
4.3715908913816734E-8
2.367842867553228E-6
6.144348036014797E-6
7.502787310149754E-8
1.3320624441602218E-7
2.2734800698347424E-6
5.861293018976784E-7
4.468507705040916E-7
7.872972510740946E-6
7.631364578498611E-6
6.556852874890797E-6
7.339676139141362E-8
1.4676047564461542E-8
3.532732845361555E-7
1.459181585564721E-6
3.2025446866356377E-9
9.423452491656623E-7
1.3550379174555846E-8
1.8193612123820904E-9
4.825693697899151E-8
3.267960024154619E-8
5.149151116550609E-6
8.430287459637259E-7
2.1366000149610337E-6
2.213101117045239E-6
4.768891357952586E-7
3.4472855688385653E-7
6.078316506542167E-7
8.680693369555827E-7
3.1693798426316003E-7
1.5439209282121968E-7
1.522762391198487E-7
1.4883345488756535E-7
1.4431923666999898E-7
1.3837570691886937E-7
1.3119330747583694E-7
1.2297745061349926E-7
1.1343976401000185E-7
1.0285582833467454E-7
9.154601246063275E-8
7.970091168654284E-8
6.756853192665911E-8
7.773201386405878E-6
6.30476632843887E-6
7.527621265353094E-7
2.4922589262510548E-6
1.958236384254104E-6
1.5697466397830691E-6
1.8067105172542436E-6
3.0608281349026747E-6
2.002404054750462E-6
2.3820593333404854E-7
1.3588224345492468E-9
7.749895320295017E-8
4.648080844714034E-6
7.87779983489892E-6
3.233949533206309E-6
5.151364873160054E-7
1.7168837572788872E-6
7.043844600395458E-7
1.055788244017417E-6
9.79553878158997E-7
1.1105878838243843E-7
1.7288980620261E-7
1.979153204322023E-7
1.8203853649162146E-7
4.642916085011492E-6
9.910439413351048E-8
6.61864870775495E-6
2.5395578982890396E-6
9.342847810800652E-7
1.2351361846514761E-6
1.5195778515400725E-6
1.7886866186304253E-6
2.1513217552633733E-6
3.0156416494860506E-6
1.8551494302892535E-6
1.5517491058311473E-6
1.5695885963547017E-6
1.3284200398055887E-6
8.063891265249571E-6
8.191262918465838E-6
7.4017878150559274E-6
4.105222310924724E-6
7.985387882041203E-7
5.803392167999516E-6
9.124327033355992E-7
1.3563331257719475E-6
8.161427620103351E-7
6.0687290733248345E-6
9.444108273746454E-7
8.898980013205172E-6
5.299005196611741E-6
2.584983460186092E-6
1.3732678444156739E-8
1.0830229709368275E-7
2.8528551947180924E-8
3.143310358371571E-6
6.368351974014852E-6
1.5697985771474845E-7
4.82127155129643E-7
2.4770648052693426E-6
2.508909442536724E-6
7.652442484077117E-6
3.7184890556456516E-6
3.7436893651352353E-6
4.316969917184841E-6
4.5738944440362235E-6
4.4768374449560825E-6
4.10437918015742E-6
7.193336787306333E-6
1.1144798148160262E-5
2.171712684117319E-7
3.2658054270592013E-7
5.000693920651652E-7
7.208894287629297E-7
9.854736587794398E-7
1.285036483444255E-6
1.6174083365048085E-6
1.9763210780859184E-6
2.3565677296054225E-6
2.7483365844833493E-6
4.1773883246203885E-6
3.922257779515162E-6
3.7424381790699247E-6
3.6497157134015543E-6
3.6176012797276775E-6
3.6678531190659482E-6
3.7817592497117294E-6
3.970323346467126E-6
4.2370235571004505E-6
4.597636790486901E-6
5.05736824873511E-6
5.617702327677092E-6
6.297329140204821E-6
7.125855126954473E-6
8.097096076915589E-6
8.919813949765526E-6
8.57130912777806E-6
8.179848820530523E-6
8.065938255151508E-6
7.901307960973377E-6
7.4228557070944815E-6
6.578262732506612E-6
5.34639954942943E-6
3.834407985985833E-6
2.9110968987143464E-6
1.934619461701307E-6
1.0810294701037817E-6
4.3397137858640995E-7
7.986721108786698E-6
8.481811761915298E-6
1.0108090152955737E-6
1.4097739778647843E-5
1.533148899128097E-7
1.1456821924356856E-5
1.3636936843372955E-5
5.431983163794076E-7
1.5403145990859844E-6
2.8664689513309562E-6
4.166044064753772E-6
5.367298600913057E-6
6.350323133222984E-6
7.083601339646223E-6
7.609744141743316E-6
7.945056966973381E-6
8.147489951524652E-6
8.466791083484984E-6
8.84644667892634E-6
8.846465501147628E-6
9.25288836981487E-6
9.722644161549825E-6
1.0164632589395098E-5
1.0599490400409E-5
1.0953410834170193E-5
1.1289855952769187E-5
1.1577720656925141E-5
1.1828599842010341E-5
1.2038204800209447E-5
1.2205998247732464E-5
1.2348679970848099E-5
1.2457026455889243E-5
1.2528729068635392E-5
1.2574205354326458E-5
1.2595226747154646E-5
1.2598798908813836E-5
1.2570114906260935E-5
1.2540224779892492E-5
1.2484805064179164E-5
1.2425804847158149E-5
1.236077432765806E-5
1.2285525072924629E-5
1.2208275514610274E-5
1.2128995917385212E-5
1.2363089312056086E-5
1.2924010301696006E-5
1.345060724282322E-5
1.3828746094319915E-5
1.4198670318266783E-5
1.4574570185242283E-5
1.4801702164619494E-5
1.5042783909848299E-5
1.519556087981226E-5
1.535620049980985E-5
1.535227773456397E-5
1.5407802784994727E-5
1.5313933324617062E-5
1.5158838439678233E-5
1.4992724715057898E-5
1.4749444274890928E-5
1.4435594715591884E-5
1.4084522675509979E-5
1.3687467521129496E-5
1.330285562957357E-5
1.2732112530006526E-5
1.2171457924499293E-5
1.1796331787609872E-5
1.1834824681786546E-5
1.189692197466134E-5
1.1937033873068878E-5
1.1959134470693666E-5
1.1995391894625959E-5
1.200927730703107E-5
1.200998165972497E-5
1.2000765388492325E-5
1.1968059250221026E-5
1.1922511097092314E-5
1.1848543200058406E-5
1.1750005533153296E-5
1.1620090985324391E-5
1.146024140327381E-5
1.1257012113465075E-5
1.1038893371596343E-5
1.0769508655918429E-5
1.0465815396694557E-5
1.0128659966657342E-5
9.756618701001408E-6
9.333770920284817E-6
8.873041772778875E-6
8.395013647502768E-6
7.873666740092184E-6
7.543215177868639E-6
7.1536388652315E-6
6.512798405171371E-6
5.57920170903799E-6
4.749688621221587E-6
3.7349237943540913E-6
2.5810306275516435E-6
1.4306194046659568E-6
4.417495338527525E-7
1.2915420210214262E-5
1.575007521503974E-5
8.260410660989029E-7
8.453715328769578E-7
1.178545146975375E-5
8.808316362014345E-6
4.1517985016693603E-7
1.1067265694056424E-6
1.9257383971406247E-6
2.7077619896610997E-6
3.321561968409752E-6
3.766087754283743E-6
4.221601929510642E-6
4.6525840635081245E-6
5.051440851823962E-6
5.381945306072591E-6
5.705106565474165E-6
5.996151221101303E-6
6.218196581910771E-6
6.390799122269549E-6
6.514426184806425E-6
6.5835486870880345E-6
6.589504914759499E-6
6.541364625400203E-6
6.435566899880299E-6
6.282524801612911E-6
6.080767670944373E-6
6.8587410331963475E-6
8.05044960118116E-6
8.098001066104808E-6
7.697557649428226E-6
7.317085569496948E-6
6.934410046493354E-6
6.562595047362291E-6
6.207468970122329E-6
5.854880766258526E-6
5.730483439142574E-6
5.743980937070615E-6
5.7595703124507585E-6
5.774038771482623E-6
5.779418162025582E-6
5.782423144108463E-6
5.779228343041456E-6
5.776550207625886E-6
5.768977384095183E-6
5.754622002207457E-6
5.7368341134361045E-6
5.716196860441655E-6
5.68990055558554E-6
5.659561890934844E-6
5.624792003668797E-6
5.585149195838025E-6
5.540134804311815E-6
5.4942036588013425E-6
5.444356983210459E-6
5.387751726589974E-6
5.328733865461876E-6
5.265803782336911E-6
5.199174171277189E-6
5.127684666670303E-6
5.054969670844267E-6
4.978200285041582E-6
4.896984218996859E-6
4.815034539331587E-6
4.729299830023902E-6
4.643121378374761E-6
4.553079659919376E-6
4.460802629853322E-6
4.367243817616915E-6
4.2711727297046445E-6
4.17406358654131E-6
4.075232745446746E-6
3.977979804437338E-6
3.87784095384526E-6
3.777393574587222E-6
3.7818176955106773E-6
3.8068022013794313E-6
3.764059812242324E-6
3.738692015132193E-6
3.971095562969769E-6
4.209986874433234E-6
4.452880342735902E-6
4.698367588994564E-6
4.9441546218162175E-6
5.189957153617196E-6
5.424515896652161E-6
5.656614352761766E-6
5.884078669393699E-6
6.103100284016909E-6
5.937921967710748E-6
5.33979737387473E-6
4.777787794070157E-6
4.269470306594175E-6
3.8159542595298375E-6
3.4053590220562576E-6
3.0431152034475416E-6
2.9337549978336074E-6
2.8733334476929847E-6
2.8116127210142634E-6
2.7483018590419142E-6
4.116222189037696E-6
3.952554218230213E-6
3.7920635961631463E-6
3.6330401752977375E-6
3.4784101158995972E-6
3.3267944954440995E-6
3.1793572467791065E-6
3.0361619257345627E-6
2.896579806060315E-6
2.7613989133250304E-6
2.628764286987772E-6
2.502135030293144E-6
2.378470255919664E-6
2.2560249037935863E-6
2.1387181313023545E-6
2.022946077013577E-6
1.9097512515854236E-6
1.798308814742755E-6
1.6889818332688194E-6
1.5778642936758795E-6
1.4683276788511417E-6
1.3579085990136615E-6
1.2469232505274255E-6
1.133545503245127E-6
1.0185293859389918E-6
9.618656467762804E-7
9.125694430695217E-7
1.2405076048865448E-6
1.1888237964140796E-6
1.1347027180899246E-6
1.1032486595894192E-6
1.2104824921813812E-6
1.3318790659264775E-6
1.4676369201302316E-6
1.6225493805135808E-6
1.1491089907242847E-6
1.015741575154404E-6
8.899749078301521E-7
7.71597124666219E-7
6.619218203777728E-7
5.613856651476474E-7
4.6939983497107175E-7
3.86784238502831E-7
1.195493017859138E-5
9.978290734314883E-6
8.54318228251565E-6
7.296381371870152E-6
6.12769373146819E-6
5.052835125333652E-6
4.074112136679833E-6
3.1982129064541504E-6
2.4299308158111745E-6
2.2203298466390997E-6
2.2951069316543348E-6
2.328074176772572E-6
2.318410777697441E-6
2.2627020695589115E-6
2.1646414805164768E-6
2.0299623117516573E-6
1.863382197350722E-6
1.7873313383664067E-6
2.1175693538605566E-6
3.1531307692802396E-6
2.046331202052292E-6
2.021430658647727E-6
1.5548270743955353E-6
1.3155627304896544E-6
1.0863645280441095E-5
1.2210960549391539E-5
1.0655426840891881E-5
5.338658746177231E-6
2.6541042848699837E-6
3.3302749143424202E-6
1.4456517744102174E-6
1.945344231864861E-6
6.255259239844872E-7
1.5099861955629945E-5
3.736317115025082E-6
7.293359358876359E-7
1.7531470166481125E-5
1.474829487849055E-5
6.017575333460222E-7
1.9659133487592022E-6
3.594061704818616E-6
2.2246661445554013E-6
2.226500781034586E-6
4.71396190463037E-6
5.576693175976276E-7
3.101647115950231E-6
2.8627478705053864E-6
1.2236529968722522E-5
9.310013032825203E-6
7.805477043254637E-7
1.0413517420655025E-5
1.7034245879717425E-6
3.425572087587462E-6
1.04625675198967E-5
1.2266069578582215E-5
3.6337089051041715E-6
4.187735309667673E-6
3.525236202473336E-6
2.9488225948786333E-6
2.80100904166816E-6
2.987708363256917E-6
3.5383659874577123E-6
4.298127160649196E-6
4.997089902205465E-6
5.218767987752558E-6
4.958296578379608E-6
5.161674896413088E-6
7.658712549807454E-7
8.126506709758665E-7
8.338470784878523E-7
8.229453553400182E-7
7.773222758884535E-7
1.0192236051314556E-6
1.8968742936681398E-6
1.3422558638804267E-6
1.1315785234519103E-6
1.006096460946222E-6
9.360503730866943E-7
8.764449704806853E-7
8.964893681593169E-7
8.932447744350329E-7
8.651499963333922E-7
8.127370066282897E-7
7.388543525229508E-7
7.053631791151181E-7
9.88640377790803E-7
1.3480364095477329E-6
1.9570501918791106E-6
2.7169338439259165E-6
3.632291387062572E-6
4.6987324406546035E-6
5.914946770778744E-6
7.2724064863995065E-6
2.1229883496874695E-6
1.588724808559084E-6
4.429429420830852E-6
4.804655075481744E-6
5.127274069598525E-6
5.380386568982919E-6
5.554131308348561E-6
5.638209592928756E-6
5.624175410939882E-6
5.505705751379276E-6
6.088670699144535E-7
6.001239272676892E-7
6.739555493396749E-7
7.104655125804823E-7
6.973013050967405E-7
6.18587094771522E-7
5.185143429216057E-7
5.381278100377563E-7
6.621541669488092E-7
8.157686070779906E-7
9.270428900667421E-7
9.666095993900917E-7
9.077850454835676E-7
7.756625303064026E-7
9.698454645658589E-7
9.714210433256892E-7
1.2375320681959885E-6
5.977198645789136E-6
5.177672291198116E-6
5.951893107469955E-6
1.5640657565582096E-5
4.1417813056927435E-6
5.668236176915258E-6
1.8253077190145362E-7
1.9844404599826483E-7
5.351091108656796E-6
3.4576628836745102E-6
1.4085870715399844E-5
5.7312745740762406E-6
6.3575057555207765E-6
7.039145305832672E-6
1.6310951215577237E-6
9.346421434125944E-7
9.25462797191456E-7
7.173515579168188E-7
1.1785550304552672E-6
1.187337605452404E-6
1.0930936527749132E-6
9.312568908579681E-7
7.353036803984064E-7
7.568617356068992E-7
7.327095907560091E-7
8.039636764708074E-7
9.076719760469161E-7
9.566159396793625E-7
9.207955048521053E-7
8.430560870355289E-7
9.62136486185103E-7
8.128426988294806E-6
8.387799557581032E-6
8.548222437453643E-6
8.616393554123169E-6
8.596132449611226E-6
8.488898939546422E-6
8.304342874328925E-6
8.041881694012925E-6
6.0315968893110864E-6
6.3780549112674265E-6
9.91508274347573E-6
6.88957054067234E-7
6.289140685544837E-7
5.744095868130845E-7
5.229503304043701E-7
4.74771001626703E-7
4.4712258499565854E-7
4.293216927767815E-7
4.132059654099907E-7
3.9806801554711273E-7
3.4540432547558302E-6
3.6029538014858213E-6
3.7465506947158563E-6
3.89019982281846E-6
4.033798451660414E-6
4.176354856671061E-6
4.319298958339513E-6
4.458165830627764E-6
4.593091384796704E-6
4.730207961017368E-6
4.863510454443516E-6
1.6286556358442423E-6
1.5512113436679497E-6
1.4733130249253544E-6
1.3987406518050854E-6
1.3238561893474533E-6
1.2551676559128402E-6
1.1874447476159383E-6
1.1200428230125288E-6
1.0591086644751345E-6
1.000560067116823E-6
9.426052771837025E-7
9.064657278641256E-7
9.1548196030303E-7
9.240763642783134E-7
9.320919519135691E-7
9.394119932034646E-7
2.495003707767338E-6
2.500367190573181E-6
2.5046286991729783E-6
2.5066592784675723E-6
2.5081393997594803E-6
2.5080379594791815E-6
2.5060343307681878E-6
2.50304286665242E-6
2.4995122203499748E-6
2.4561308628703022E-6
2.399368962945586E-6
2.3428289661563886E-6
2.2871314949344143E-6
2.2311144430098E-6
2.1758862300098273E-6
2.1209376641751763E-6
2.0661740005138504E-6
7.67780429927372E-7
7.448815286471562E-7
7.224857179590201E-7
7.002864436771138E-7
6.786588200470062E-7
6.710181726944496E-7
6.970142029458621E-7
7.22826690962659E-7
7.485937587786295E-7
7.755123453551811E-7
8.024516111393965E-7
8.290422922184919E-7
8.567794187019562E-7
8.841181575576639E-7
9.113142902995126E-7
9.384048413352508E-7
9.653800566575582E-7
2.578103987176669E-6
2.452752764418036E-6
2.3317855385074194E-6
2.213028720392415E-6
2.0968145602356194E-6
1.9845653119775155E-6
1.8760045797297842E-6
1.7687072884639427E-6
1.6657094928670705E-6
1.5655350510869825E-6
1.4704410293781087E-6
1.3769474542933672E-6
1.2874261377905816E-6
1.2012179569176958E-6
1.1190542805857912E-6
1.0392511174652523E-6
9.633025140474044E-7
8.909953495139487E-7
8.212065358636809E-7
7.556563063686642E-7
6.928030870749601E-7
6.328827030093588E-7
5.768692469163787E-7
5.231427187966225E-7
4.734669288193143E-7
4.259784435212904E-7
3.817625440177919E-7
3.4692918509974396E-7
3.254823180593873E-7
8.470745450017929E-6
8.077607148397107E-6
7.700218071263274E-6
7.3284505163411195E-6
6.9716959607053915E-6
6.624831223171216E-6
6.2910686638171294E-6
5.965049248171589E-6
5.6517683557304375E-6
5.3464853245247895E-6
5.056066140861858E-6
4.7772115038775E-6
4.504747013124145E-6
4.245572242834438E-6
3.9952009961954614E-6
3.756754647062067E-6
3.527038900791295E-6
3.3058938592233463E-6
3.0960327931020238E-6
2.8952744870382168E-6
2.7028421549468583E-6
2.520782798713806E-6
2.3475114382240836E-6
2.182070930470697E-6
2.114271108461551E-6
2.124502432362625E-6
2.1327444459130576E-6
2.141132574637497E-6
2.1472838509892305E-6
2.150581679141919E-6
2.1528659085225776E-6
2.1547702365707047E-6
2.1533281208035104E-6
2.1512363726899253E-6
2.1469263956518027E-6
2.1427403944446546E-6
2.1358424347956277E-6
2.1274906581265198E-6
2.1173914939302393E-6
2.1064852613394153E-6
2.094274426557012E-6
2.08140612047117E-6
2.0665837499774693E-6
2.0507632695218803E-6
2.0341361164346633E-6
2.0159932554909425E-6
1.997586786943323E-6
1.977923233706546E-6
1.957201466793965E-6
1.935572450068111E-6
1.91381732063285E-6
1.8906411627384147E-6
1.8677196911089906E-6
1.8436847020175848E-6
1.8192399560801056E-6
1.7951816996724933E-6
1.7695683608196674E-6
1.7445968280712907E-6
1.7493441793198826E-6
1.8169834872122415E-6
1.8818272611441066E-6
1.9483942591756817E-6
2.0125314391113764E-6
2.072802963777796E-6
2.135563904319023E-6
2.194594572015467E-6
2.253094990253546E-6
2.309368175542438E-6
2.3630175534695854E-6
2.4162545459665347E-6
2.465932899220706E-6
8.576060389548706E-7
7.337333204740395E-7
6.202674475534085E-7
5.18815374744357E-7
4.2930596315636185E-7
4.095641730585768E-7
1.0319830504764609E-6
1.0050100568261457E-6
9.75056207530087E-7
9.421128757707882E-7
9.065585396028338E-7
8.684555842673525E-7
8.2817736453253E-7
7.857154950304965E-7
7.415116874788635E-7
6.956892552123906E-7
6.494388299531084E-7
6.021626532832807E-7
5.54500460243632E-7
5.061297842880752E-7
7.68775047558914E-6
7.0906931279117775E-6
6.500984032436138E-6
6.552531872948151E-6
6.615323509300054E-6
2.6037507650006323E-6
2.8588801114745598E-6
6.436218544178899E-6
4.819080648815211E-6
4.918604170666468E-6
5.0438968357230245E-6
5.146115654522151E-6
5.228750831282908E-6
5.288914633129435E-6
5.326937944670299E-6
5.345746204631208E-6
5.344209122994463E-6
5.321938524787876E-6
2.3551881491246985E-6
2.0738700680893366E-6
1.7786422662248373E-6
1.4796230842948129E-6
1.1880083869251337E-6
9.367384872610829E-7
8.78895962265813E-7
9.027921144626859E-7
1.1384794743959676E-6
9.869699038621726E-7
8.277284456159034E-7
6.648082782905667E-7
5.068512275158066E-7
5.280237483580481E-7
5.610444675345208E-7
5.919477342135352E-7
3.899781553443871E-6
3.659297723792624E-6
3.3988323936779826E-6
3.118067815144074E-6
2.8248497163136046E-6
2.5109187538865374E-6
2.1789080845081542E-6
