%%MatrixMarket matrix array complex general
%
1000 1
6.432297182643194E-1 -6.435861865827068E-1
7.875508017379783E-1 -7.882061095038629E-1
9.091804432705755E-1 -9.101909602898735E-1
1.0162994588936467 -1.0177269584547417
1.113112173585244 -1.1149827961329386
1.2021080318060349 -1.204449358988949
1.2849191826266764 -1.2877674986037981
1.362640674769687 -1.3660449243913866
1.4361366421223023 -1.4401218122552457
1.5060082140051902 -1.5106075307705276
1.5727292610480834 -1.5779928017760698
1.6367269878203334 -1.6426358014469113
1.69826891556105 -1.7048858202487867
1.7576144575852508 -1.7649975446932162
1.8149600155548844 -1.8231734970213944
1.8705979247829667 -1.8794283670674932
1.9245554689445963 -1.934181063882984
1.9770119525578185 -1.987453543967181
2.028083135442148 -2.039358137906284
2.0778686488959277 -2.089993726611877
2.1264878235254305 -2.139482537084741
2.1738782238163243 -2.1879210765789865
2.220583234111123 -2.2351123039824716
2.26590697907748 -2.2816141563705576
2.310424562573208 -2.3271295397223875
2.3540923005257675 -2.371795456061381
2.396958190750356 -2.4156382648768786
2.439054710131228 -2.4587288524917725
2.4804658041932157 -2.5011032779712257
2.521083518518188 -2.5428313014673853
2.5610687960336898 -2.5838691927959005
2.6003923436440783 -2.6242774105681885
2.6391275769475677 -2.6641073073727433
2.6773027731567507 -2.7033538133709256
2.714886634533882 -2.7420666306529977
2.7519124650378552 -2.7802715796682116
2.788408387348388 -2.817990540976598
2.824385516601466 -2.8552612988795625
2.8598523483447145 -2.892134901817647
2.894826023038434 -2.9286617872373615
2.9293309161179137 -2.9648822145210874
2.964007429372284 -2.9996667788601488
2.9988591520300196 -3.034507346110677
3.0314821447444293 -3.069597516176673
3.0646824444650496 -3.103902456111831
3.09735552005173 -3.1378691583518528
3.1295959692290096 -3.1715557633805926
3.1613577775856805 -3.2052240587705048
3.1932098837131484 -3.237907777871214
3.2244747928320114 -3.270634423703374
3.2554514772138194 -3.303038905172574
3.28614168010221 -3.3351336234954645
3.3168133662528043 -3.3668070488977335
3.346985950311335 -3.398372013318132
3.3768270191677225 -3.4296269531344965
3.4063669545958253 -3.4605811148665855
3.434202702521327 -3.49086441401769
3.464517371567732 -3.5215077632426213
3.4926581132357173 -3.551458474785119
3.520925475377438 -3.5810533116742693
3.5500393811344475 -3.6114863337263055
3.5790858861444024 -3.6413100294299516
3.604823728884851 -3.6699755925568684
3.6321997099227215 -3.6985136589478733
3.6595485249978013 -3.727787881839213
3.686032418471208 -3.756977581668839
3.714121092769599 -3.785530912416911
3.7411051119832854 -3.8135429854203604
3.767791860856215 -3.842070758118593
3.7941691194766296 -3.869680846359723
3.8202441217055783 -3.8970108206157037
3.848269030893433 -3.924280289955978
3.874421823378497 -3.952661685727533
3.898091126662554 -3.9795772095877244
3.9217782736674516 -4.006777515650517
3.948024558048435 -4.032449241104462
3.972826704806096 -4.059783036563706
3.997069451773961 -4.086133822334424
4.022056802551437 -4.112513011837033
4.045587407494721 -4.139886028977181
4.071353907866352 -4.16492441240092
4.09680921051597 -4.189674247362566
4.119573730797822 -4.219742969178455
4.143304250651716 -4.241590823846136
4.167116557545802 -4.26701567826234
4.189983230524851 -4.289812348783844
4.210955622983947 -4.317468978820218
4.237343555132774 -4.3431975065988295
4.260352435526596 -4.36815327454712
4.283374461399446 -4.39302082085561
4.306136823155885 -4.416569452177648
4.328117276058734 -4.441617791083193
4.350670832915966 -4.466041642804216
4.373217322907472 -4.490449782898277
4.395728388673829 -4.5147949078087946
4.418539390317683 -4.53819209896132
4.439403709693446 -4.562910701380037
4.4613370800576915 -4.58704172972856
4.483766671126732 -4.610261226747681
4.506082136578714 -4.633274008026225
4.5283397874025475 -4.661342183039505
4.550929152843916 -4.680601368410281
4.571503994823268 -4.704131146999029
4.592341539085628 -4.7280023382804375
4.61758466801142 -4.750805484686805
4.637895858644241 -4.775499701163785
4.661032252977738 -4.798483753714538
4.6811764054584 -4.821112760964091
4.70045498531469 -4.8433425686611
4.721665638777928 -4.86610633529653
4.743358596284499 -4.888945054742343
4.764816839605295 -4.911813839240862
4.77915215365188 -4.932566516652726
4.799409410911518 -4.954844260692023
4.819519106453409 -4.977097495226209
4.839331447101614 -4.999375064681699
4.8589863374222215 -5.0217991621710265
4.885599836413079 -5.041420039842404
4.899647224583296 -5.064984557085224
4.9192868339461056 -5.085225547617169
4.938417640243024 -5.108335823023017
4.957926427690016 -5.129950595784996
4.977365893580602 -5.1514686890679595
4.99146548250211 -5.170448637018425
5.013213882398176 -5.192542398288307
5.0315862601136345 -5.21718429960301
5.051738256011742 -5.235800334316829
5.069202003589266 -5.258920322189752
5.090000119961737 -5.280405016901339
5.107915194723222 -5.301765635374373
5.124912098094867 -5.32330357723429
5.1416177802247685 -5.344809399111869
5.158296219729575 -5.366246331448194
5.185522227813101 -5.383610669581491
5.203977211489085 -5.4042627030795165
5.216222491366871 -5.427731088428965
5.240160566364822 -5.445311869191694
5.255811505626132 -5.462951172565622
5.271955994649998 -5.487728511563442
5.294626668957626 -5.507101151545441
5.313043513560488 -5.527012700080161
5.328364193993543 -5.545808170852966
5.340014487343839 -5.5721470710716945
5.373307724803467 -5.589813453766788
5.385129184525797 -5.607321336478158
5.4051316010134585 -5.626233108387812
5.419648441195831 -5.646931086264712
5.438325631873376 -5.66962492032784
5.450423245786363 -5.687751897038669
5.472051616540581 -5.706121636349539
5.4788608263043885 -5.7223501034365665
5.5070219484593546 -5.745069668675948
5.523606927939938 -5.7646882948329115
5.546904407034051 -5.7798704787480855
5.556542306837482 -5.805361192876801
5.572794749974274 -5.821617284285435
5.591772764445492 -5.842891515601069
5.605415229581595 -5.86162324289377
5.615869233251201 -5.880718610984438
5.642627842874772 -5.900790757677203
5.661714239746955 -5.917238286868661
5.675585700742642 -5.939216791928711
5.696887397495648 -5.9585973967076
5.711799043754689 -5.975060202184847
5.725465606708239 -5.99512583824489
5.741068659024341 -6.0138507688072345
5.7559094163409386 -6.032413090804334
5.77318166175355 -6.0519733546980525
5.7866191974057095 -6.064790692291372
5.806669730132449 -6.089337432006423
5.822955774301978 -6.107552121692996
5.839133119208607 -6.125980931723952
5.854784071027277 -6.145019115713378
5.870528619350512 -6.16343365647786
5.886838672241508 -6.181408478988264
5.901954802910984 -6.199790873334882
5.906359830084195 -6.223376454942748
5.922008123564191 -6.241823857017387
5.93746601254528 -6.260469075170341
5.953493182483265 -6.278927993712112
5.970372559039263 -6.297012077766674
5.9880478607720695 -6.314665563677197
6.012812704349288 -6.328246404335373
6.01234241195313 -6.347824066025251
6.042383869330138 -6.363108274939116
6.054139091400195 -6.381347468361577
6.072542494502473 -6.399165255299748
6.089091241689984 -6.41685964096354
6.104182668133566 -6.435408036654159
6.117875392553772 -6.451984349577812
6.135277478022609 -6.4702889581075995
6.15937569865904 -6.475847332252486
6.1735805320415205 -6.517105190363437
6.172355987965991 -6.520644606454876
6.186070934914829 -6.532514102552062
6.198115765815899 -6.539435401839811
6.2232479389507 -6.577747067095078
6.2402886178850805 -6.595005931310343
6.256387201841311 -6.612502368614647
6.269371613245943 -6.629519544666971
6.2841903577982 -6.646860664991625
6.299027708425001 -6.664197095129566
6.313787924843086 -6.681492894793054
6.328439755257841 -6.698717311652143
6.342985554503559 -6.715856893663103
6.357450391389575 -6.733026623218071
6.371763659573242 -6.750271553755934
6.385882019995967 -6.767321072356736
6.39980388605708 -6.784102715514855
6.4151126111734005 -6.801637947208117
6.430177573185527 -6.819606526344183
6.4285237199001655 -6.839540006143935
6.45896191913104 -6.853337191453143
6.472981180038122 -6.869674767784274
6.485896016799911 -6.887063196980465
6.4977738470433355 -6.904638735811049
6.508662314109533 -6.922567065573569
6.534825904838206 -6.935185022218216
6.547181328084423 -6.952695080881627
6.560622123685065 -6.9697095067787505
6.575242618092091 -6.986153073015339
6.58997592077968 -7.002487055367708
6.604721019703617 -7.018751407512818
6.619243883481535 -7.035050779196727
6.633049245142585 -7.05161357215221
6.627429070882625 -7.076435412110746
6.6427813536206015 -7.0922709918733835
6.65832350641189 -7.108024078146698
6.674046754425407 -7.123694528287433
6.6898864472404265 -7.139300116859434
6.70572213523876 -7.1548710829934965
6.7213328828374745 -7.170459016247781
6.736292116510816 -7.18616028733707
6.745294930324127 -7.203162969239493
6.757596559870836 -7.219949713238413
6.77355232477573 -7.234736784289681
6.786821629367925 -7.250716662132832
6.800392324635234 -7.266713729862059
6.788868292603821 -7.291304387326704
6.8247776748671996 -7.300878487760743
6.837317630776786 -7.317345594723953
6.849798017303875 -7.333753328052471
6.862249070209765 -7.350081412189573
6.874710042031399 -7.366311137760557
6.887222124240215 -7.382424434106839
6.899833553687181 -7.398403612005929
6.912593452847393 -7.414233411416672
6.9248137221650925 -7.430247600412154
6.93614970920457 -7.446553142558479
6.947325674194666 -7.462787464910966
6.958456800281813 -7.4788975375635305
6.978131646887849 -7.487477065647939
6.991587312667265 -7.505845195110546
7.003721574525503 -7.521701266420256
6.994152561478915 -7.542193338778517
7.03337294016916 -7.55612468763845
7.022105825723758 -7.571728291827402
7.035862879303729 -7.588457620724659
7.043668484922176 -7.606622798197031
7.0590080309022785 -7.622820213452626
7.093712423944542 -7.636597974110195
7.107200063076482 -7.652043726052105
7.121178079305925 -7.666653185599085
7.1348581750612805 -7.681030103546091
7.12804004787961 -7.703886996995733
7.135111822567091 -7.720110999209645
7.144200786101035 -7.7353716381536275
7.155709630063937 -7.749793295011422
7.169496118653535 -7.763597666604051
7.209202942466633 -7.773725709639991
7.221146525593867 -7.789602301012426
7.222306287267633 -7.806734838319259
7.244396272851204 -7.817423329518464
7.254680498476554 -7.833749070027794
7.265561439890268 -7.849992794173171
7.278012784985422 -7.865451172414504
7.2920688833637755 -7.8799908980269775
7.305862879898789 -7.894677137888374
7.313640355152941 -7.9143341256435775
7.309282069300837 -7.933483292718921
7.353275794048847 -7.93297040381
7.355912070550404 -7.940618571377593
7.366761511885465 -7.970461755808368
7.367766416185957 -7.988440581385222
7.391400194604957 -8.002421245175109
7.39774606988974 -8.017862203403498
7.414608665498312 -8.033349675554396
7.427436477785119 -8.04631528482526
7.442792180038717 -8.057926864367433
7.454194649352569 -8.07545508736868
7.466103756814376 -8.090373270836075
7.479394022754718 -8.107912558954826
7.483293545694902 -8.121768818783341
7.49737502772303 -8.136645623774792
7.508405028909068 -8.152286433103628
7.5207741068024525 -8.166146917491902
7.530531443939565 -8.18107886932104
7.530120740718047 -8.199783071277924
7.541464223920266 -8.21419292618819
7.545193811435082 -8.229867165280295
7.571208780916366 -8.241547753578116
7.583469726806409 -8.256229895048802
7.598936888257267 -8.270360401040094
7.606581808447266 -8.287465905748965
7.580341928574167 -8.26407969746772
7.6304807246712425 -8.314014055807146
7.640932378455341 -8.329191233963932
7.605404222999565 -8.337085192715573
7.645344182736808 -8.352696779080123
7.675720284074918 -8.371598860062731
7.696129996841372 -8.385908059816263
7.705679817337225 -8.39898621866639
7.713107918844477 -8.418413500584396
7.701491298673948 -8.4421353073068
7.734629699578084 -8.44543546309432
7.725481593157448 -8.515348373136202
7.752020026503209 -8.479962400441439
7.739168527861684 -8.501802407574532
7.777091389817153 -8.504437347848606
7.826551342624705 -8.523530703865331
7.786067616687147 -8.53314121239242
7.815815504225371 -8.545679033860027
7.812344021647707 -8.554498314779162
7.792457416964495 -8.556043012548841
7.847015531783623 -8.588582534303056
7.803269294336222 -8.573626349154056
7.85104773461696 -8.604096012212803
7.868875925650704 -8.63597770948218
7.868425360298386 -8.651664787692718
7.8959110722141475 -8.661353033335992
7.907137517211033 -8.675451456660955
7.910980174389409 -8.69192432024292
7.909640740536129 -8.701684618280561
7.91462942970237 -8.716166426399656
7.923100091323039 -8.729618153520983
7.936782562391183 -8.744331132756662
7.974995513909605 -8.763117079330748
7.982161410333425 -8.779766583448549
7.990003156570629 -8.79528550918552
7.999858851197477 -8.809120072567884
8.017974354621735 -8.818224646985744
8.028720603603135 -8.831682000019514
8.009512830417878 -8.857045991768768
8.022541035741886 -8.870632980177794
8.035796419841173 -8.884069784197111
8.049149876617534 -8.897404392482064
8.062514356805762 -8.910658406264998
8.075874917434351 -8.923848575829131
8.08909802211097 -8.937008089091744
8.102143597393992 -8.950159749362387
8.114912416742085 -8.963343169095554
8.119247781755234 -8.97960705488889
8.110368033173195 -8.998545115601809
8.136197322424442 -9.007139895593776
8.157022627599224 -9.017679683144094
8.17204036162893 -9.027351443795506
8.176068907452839 -9.0434922383886
8.176715415961619 -9.060490262833175
8.174862920611874 -9.077464935333117
8.164808208471374 -9.026621950542474
8.226091927398997 -9.094224575664143
8.236115248973723 -9.108053084356666
8.243189394036552 -9.125689775234493
8.25359863327624 -9.138867453997564
8.246245570480808 -9.158145277554176
8.214131763848759 -9.149429178393074
8.28848487999586 -9.17772155444325
8.293300389529914 -9.183130428463713
8.315088636686237 -9.204275508117217
8.317034851560942 -9.219168378978516
8.322205064984379 -9.2346586715083
8.335847090539925 -9.239019144338894
8.331741813589787 -9.275955625124942
8.337896124373668 -9.279800321440826
8.302919010444858 -9.341601290739623
8.34446928223816 -9.320763648729054
8.363224948108867 -9.332424956352474
8.381261085861627 -9.335795145314894
8.387615608021475 -9.352967080179289
8.402038347075433 -9.366227546564208
8.427487105220107 -9.371881488722844
8.415359490061734 -9.396164613283982
8.385418596175349 -9.429155487227238
8.40140989762266 -9.437878473383535
8.416885459840646 -9.447342985871952
8.432348208404003 -9.4569855270265
8.447806662356538 -9.466853043352485
8.463173271168069 -9.477031662207288
8.469262840250693 -9.492871793088915
8.474942786292019 -9.509080449764408
8.48222809041505 -9.524294557967265
8.49100327148181 -9.538479525397175
8.493741511510798 -9.556955827147753
8.478989635420014 -9.591436972216394
8.563273674247219 -9.558907025730312
8.571233837297317 -9.572653764241876
8.578746709628481 -9.586543053351768
8.585749514298262 -9.600617215075172
8.592157853503965 -9.61494069849187
8.597959412932015 -9.629570137379272
8.603172154370977 -9.644556504790355
8.607905126405173 -9.659911007453276
8.612139139915076 -9.675690676891405
8.572761000370974 -9.699207801513019
8.592218025841754 -9.708383488820846
8.611172034237603 -9.71766906995704
8.670332081529025 -9.723149158282151
8.677060390174427 -9.737619009969096
8.683577909858819 -9.752177573594988
8.690005083619484 -9.76676837267492
8.696498510008011 -9.7813111062373
8.703136214376164 -9.7957538653229
8.710045163429283 -9.810024265649668
8.717344277544852 -9.824059557990655
8.725041769283067 -9.837846143796115
8.733178143540442 -9.851368448444818
8.748488450260732 -9.871354696208167
8.750504724110773 -9.890079722864291
8.753326591508387 -9.908360176498903
8.75688295535832 -9.926199265981731
8.76135917172122 -9.943412825416615
8.766701148104637 -9.960015366937233
8.772967373226386 -9.975936398236001
8.833330039069663 -9.944355334233284
8.843867873114522 -9.956647153811147
8.853668754017415 -9.969419629466895
8.862671157150972 -9.98251951148697
8.826874707181453 -9.992057748510467
8.81653241550973 -1.0028779579957307E1
8.808287009982696 -1.006882448542165E1
8.803471023789866 -1.0108870630924692E1
8.904693861093156 -1.0049084938817133E1
8.912021864130818 -1.0062625751662685E1
8.919534278437729 -1.0076177106418626E1
8.916022715592296 -1.0054519943359303E1
8.926971239842048 -1.00650820507301E1
8.936532605928466 -1.0079704294388542E1
8.944694599702588 -1.0098103494756927E1
8.949476351295536 -1.0119663779841833E1
8.912740392001592 -1.0239843971101186E1
8.922355317986847 -1.0250271278153706E1
8.937805700518531 -1.0232419702824437E1
9.012267279530334 -1.0171587942308909E1
9.005293619573969 -1.0196441337847636E1
9.057677977328202 -1.0222722858143653E1
9.072317775521334 -1.025688558193848E1
9.046690658668389 -1.0276184526034658E1
9.063823901899957 -1.0258752561618127E1
9.06967383949481 -1.026616378801832E1
9.079454081004538 -1.027977399632798E1
9.084625112438307 -1.0288498562060063E1
9.08273999691882 -1.029502128822139E1
9.099170373759135 -1.0284212153890536E1
9.107776506605179 -1.0307513536264855E1
9.117311683290481 -1.0310543191107541E1
9.123585339764857 -1.0321859938869837E1
9.130520977754461 -1.0342470811855867E1
9.131872459227354 -1.0369712560157595E1
9.147761723715055 -1.0385400322986312E1
9.164283266824729 -1.0402248901316261E1
9.177103696011615 -1.0418379394978752E1
9.18710078391099 -1.0432843294333244E1
9.196028439989597 -1.0445647774402492E1
9.204177702867618 -1.0455772593389355E1
9.214787771068103 -1.0467191621107006E1
9.2286321968849 -1.0497056095247816E1
9.23589199024275 -1.0541097431771679E1
9.30316767272137 -1.0544049947168986E1
9.254116052842974 -1.0525597586679668E1
9.24383335089327 -1.0531147228622745E1
9.250143793287798 -1.0541516500059439E1
9.236089228563392 -1.0599234026549098E1
9.234089701105981 -1.0675681998321995E1
9.276501889188927 -1.0584205001544294E1
9.288078457685382 -1.0594982750460993E1
9.20987345845816 -1.0708944611773996E1
9.299175191322057 -1.062463813432183E1
9.30839357699345 -1.0636246669431527E1
9.318708691762563 -1.064754624764533E1
9.305921261516641 -1.06210714576118E1
9.280244931112223 -1.0669383301835548E1
9.251022942035167 -1.0785023863426044E1
9.329737096819807 -1.0718030854673062E1
9.321085650295649 -1.0745786429856823E1
9.317508290469567 -1.0769247366919704E1
9.321174818747497 -1.0784276285938333E1
9.363141363664072 -1.0764674945199099E1
9.37291040395602 -1.0775975212755961E1
9.383436860909802 -1.0786872817308414E1
9.394544035819141 -1.0797493163928497E1
9.40617453697087 -1.0807867347012202E1
9.406302199989359 -1.0824720218484245E1
9.40651908719563 -1.0841277051443537E1
9.41097922005756 -1.0854687033327536E1
9.419860972218052 -1.0864698366229387E1
9.447847535095228 -1.0869115725194234E1
9.456010802939419 -1.0881586840527866E1
9.464173212105793 -1.0894048518013435E1
9.472337889929975 -1.0906500920251027E1
9.48051013434578 -1.0918938304313828E1
9.48868690539986 -1.093136484176815E1
9.496865393136801 -1.0943780189235966E1
9.505054293733165 -1.0956179557267795E1
9.513244530243867 -1.0968571559831291E1
9.521447798714197 -1.098094641695694E1
9.5296609231967 -1.0993306383826217E1
9.537878038055135 -1.1005653269173202E1
9.546106020389361 -1.1017986898315119E1
9.554345309740812 -1.1030302867803716E1
9.562596014047191 -1.1042601934768452E1
9.570862994296164 -1.1054882966556674E1
9.5791338498799 -1.1067148113340735E1
9.587428197358776 -1.107939052024141E1
9.59572874400797 -1.1091615790312325E1
9.604042990779922 -1.110382002393521E1
9.612380540990692 -1.111599802435931E1
9.620727462080112 -1.1128154864582985E1
9.62908667211671 -1.1140287775818583E1
9.637462118955565 -1.1152396044808423E1
9.645854146067567 -1.11644742918616E1
9.654255718607331 -1.1176527651255448E1
9.662672414787497 -1.118855076286255E1
9.671105276984372 -1.1200541130379536E1
9.67954182028295 -1.1212504994656863E1
9.687994211558086 -1.122443347614416E1
9.66184216610663 -1.1252706660197116E1
9.67211167551095 -1.1261614877911601E1
9.684540393951686 -1.1269310652528883E1
9.699258886841308 -1.1276168351550373E1
9.670279088880248 -1.1316896034377162E1
9.688742380876088 -1.1315988507149209E1
9.69277981119913 -1.1330911491205596E1
9.700698185392017 -1.1345999852539663E1
9.716092613518969 -1.1355708663769223E1
9.722397898490733 -1.1374787924952127E1
9.723614707928553 -1.1384856991733184E1
9.718791943569432 -1.1421429721884774E1
9.735382394424272 -1.1433322377941908E1
9.76371409484319 -1.1428484681768134E1
9.750118777080477 -1.1444454366039121E1
9.757647579689744 -1.1468121584743464E1
9.812289920045172 -1.1434872985721398E1
9.834888605013575 -1.143084714566071E1
9.843236378985244 -1.1444603271481203E1
9.898832373734608 -1.1575013717025312E1
9.888023025303909 -1.1466510480654168E1
9.864289822068397 -1.145345731818555E1
9.75873677643166 -1.1407202017213557E1
9.878621745685882 -1.1503365347659704E1
9.733394333217165 -1.1472026997660016E1
9.888307428111943 -1.1531901044017067E1
9.8002320667445 -1.1554153749599985E1
9.812953517227909 -1.156188012148957E1
9.889067319539025 -1.1573623547484255E1
9.874629731364003 -1.159095935066086E1
9.8701339137316 -1.1604008180731812E1
9.882362806407436 -1.1612546998351084E1
9.912078176275507 -1.1621125368878536E1
9.912492134111064 -1.1631751046622677E1
9.913545978560087 -1.1641554055497686E1
9.921049672544179 -1.1652042563012017E1
9.931335300457906 -1.1664443444809327E1
9.944020532584235 -1.1678642321528574E1
9.987055343061304 -1.1694891957150643E1
9.992394400251815 -1.1708336046034194E1
9.99821276708639 -1.172139857688829E1
1.0004603933522576E1 -1.1734084248662363E1
1.001157174636634E1 -1.1746428162382555E1
1.001913609962544E1 -1.175845384051765E1
1.0027296744447575E1 -1.17701673554289E1
9.947647961775228 -1.1780647897841304E1
9.932630043554687 -1.178967462468594E1
1.0050181082101423E1 -1.1804364740736986E1
1.0060254543804346E1 -1.1815368916824422E1
9.903332471104273 -1.183426720153721E1
9.945984214686096 -1.1850626345246576E1
9.985776493247949 -1.1863838850443067E1
1.0022201543065144E1 -1.1874148088710607E1
1.0048721908353855E1 -1.188399583204548E1
1.0066592335195471E1 -1.1895080215414996E1
1.00695792979546E1 -1.1907400288410019E1
1.007275991511233E1 -1.1919619534908335E1
1.0076199835013167E1 -1.193174920721836E1
1.0079939982156048E1 -1.1943801104185582E1
1.0083941211872261E1 -1.1955777154525592E1
1.0088183937887166E1 -1.196770341943702E1
1.0092590859763144E1 -1.1979581847686648E1
1.0096496500677384E1 -1.1991482475089859E1
1.0095774009618848E1 -1.2003564059374156E1
1.0095439892010136E1 -1.201518555406996E1
1.0095423407655831E1 -1.2026483425145301E1
1.0117306728597816E1 -1.2042360814049514E1
1.014538482499611E1 -1.2051951140416662E1
1.0152080361936374E1 -1.2059725701968313E1
1.0156362997252575E1 -1.2073139170212857E1
1.0162828419454847E1 -1.2086125922932823E1
1.017118387814305E1 -1.2098628075698876E1
1.0181076455536951E1 -1.2110658475257166E1
1.0192007460745481E1 -1.2122249906114561E1
1.020342406827254E1 -1.2133490114426639E1
1.0139448211630706E1 -1.2117131454438342E1
1.014894384870406E1 -1.212989443276251E1
1.0161522815347348E1 -1.2142494708774683E1
1.0174963909247376E1 -1.2154754618992067E1
1.0191326807176324E1 -1.2166698171972143E1
1.0210151545012327E1 -1.2177825458788176E1
1.0218450233801137E1 -1.2189666833370582E1
1.0271796364746736E1 -1.2226038992096921E1
1.0278921040044246E1 -1.2237871644372014E1
1.0289649085161114E1 -1.2248669043454573E1
1.0206355856608964E1 -1.2239416741954914E1
1.032701209225235E1 -1.226578488588296E1
1.0308744695030626E1 -1.2282323578763839E1
1.0333757558092245E1 -1.2285953522757604E1
1.0303533691826674E1 -1.239304567032994E1
1.0282079067367388E1 -1.2383818955440741E1
1.0292964558190247E1 -1.2331503118598949E1
1.0400853314354698E1 -1.2350354243578213E1
1.0332142950993973E1 -1.2373271662678E1
1.0312865213629328E1 -1.2419739847404104E1
1.038210978483397E1 -1.236479395412742E1
1.0371348673973369E1 -1.2395456353696652E1
1.0375348041936839E1 -1.2407251275074032E1
1.0411563819583694E1 -1.2399608516207019E1
1.0349060685512299E1 -1.2480251064110197E1
1.0364798326838292E1 -1.2465599477699778E1
1.0337894732182484E1 -1.2566101783920178E1
1.0390621886649138E1 -1.2455161416737077E1
1.0450723490354791E1 -1.2455474497543772E1
1.041822447545757E1 -1.2519164014950166E1
1.0468206477326463E1 -1.2469996808611503E1
1.0555786085219202E1 -1.2583243124629085E1
1.0513934594769822E1 -1.2474062433807553E1
1.049261064637182E1 -1.250569791234509E1
1.0493581212469008E1 -1.2508252660245592E1
1.046692995463274E1 -1.2530908729316527E1
1.0405342522774758E1 -1.2525907163594322E1
1.033632241440723E1 -1.2550284714865636E1
1.0373290974355815E1 -1.2559813859466653E1
1.0441422221277506E1 -1.2566324710415595E1
1.0529017323758346E1 -1.2597791255356714E1
1.0409689235250719E1 -1.262639782521633E1
1.0517070132631105E1 -1.2622077106606199E1
1.0535146190949208E1 -1.2636637883558286E1
1.0479452709059363E1 -1.2657055797970438E1
1.0485506144597794E1 -1.2666617095922293E1
1.0496882693100288E1 -1.2675639547156225E1
1.0512547539140657E1 -1.2684440395288355E1
1.0430937808693301E1 -1.2699493698312843E1
1.04658805930091E1 -1.271056765989186E1
1.0488463052773604E1 -1.2722955105825672E1
1.0505600737520025E1 -1.2735189319728773E1
1.0513514357063487E1 -1.2747090917430501E1
1.0513859591083612E1 -1.2759057573113536E1
1.0515509995297244E1 -1.2770959319110275E1
1.0518458872878883E1 -1.2782869311121278E1
1.0522755699837019E1 -1.279480769823146E1
1.0528470839469588E1 -1.2806806402204943E1
1.0535549067269727E1 -1.2818828286048545E1
1.0544056674641435E1 -1.2830880197183896E1
1.0553899207927824E1 -1.2842930785579595E1
1.0550710861394121E1 -1.2852049038747772E1
1.0567354430367015E1 -1.2861569670642021E1
1.0508380174245087E1 -1.2867591999720094E1
1.0603260257211733E1 -1.288660513383079E1
1.0531416395268423E1 -1.2863076293244617E1
1.0748438566539159E1 -1.2868026167599146E1
1.059587750445962E1 -1.310494358898832E1
1.0632119256339607E1 -1.3021843101194035E1
1.0607406390317081E1 -1.3076723716396788E1
1.0623519310382493E1 -1.3071977097075317E1
1.0626269140544514E1 -1.3088971071995877E1
1.0612746638389801E1 -1.3158490972084518E1
1.0733699371033994E1 -1.297906724272101E1
1.0725023150739373E1 -1.3002728703726495E1
1.071427818459762E1 -1.3030282985285691E1
1.0704880641697983E1 -1.3059514825252872E1
1.0697203453039057E1 -1.308990531660485E1
1.0692626088984234E1 -1.3132660504798304E1
1.0708260620252114E1 -1.3127040406220672E1
1.0721381035644761E1 -1.3127254576546882E1
1.0727845229650612E1 -1.3138094613082242E1
1.0731394644949662E1 -1.3153510493297793E1
1.073522672743016E1 -1.3168753833264129E1
1.0739280091767226E1 -1.3183846611424919E1
1.0743490836435388E1 -1.3198868464994728E1
1.0747852636949126E1 -1.3213802315306523E1
1.0752358733626364E1 -1.3228649228744326E1
1.0754324471232621E1 -1.3248389088901256E1
1.075172650118367E1 -1.3278367623498955E1
1.0748819687649203E1 -1.331200767618832E1
1.0745705800098294E1 -1.3350564984435113E1
1.0750173910506469E1 -1.3364149019907192E1
1.0760219146034627E1 -1.3362265282437518E1
1.0768866478134454E1 -1.3369271419455288E1
1.0777802558099719E1 -1.337590025751767E1
1.078692338060698E1 -1.3382364228586393E1
1.0795592762065345E1 -1.3389414438207776E1
1.080304174799123E1 -1.3397820461821544E1
1.081042072756651E1 -1.3406344810864283E1
1.08177543475044E1 -1.3414954755624278E1
1.0824642337628799E1 -1.342470843783003E1
1.0828804142320754E1 -1.3441472867858156E1
1.0833149118269706E1 -1.3457900180152352E1
1.0837748849950176E1 -1.347370816969955E1
1.0842551821305182E1 -1.3489043238644221E1
1.0847534284390383E1 -1.3503915404692885E1
1.085273881500261E1 -1.3518174256786626E1
1.0858119522110263E1 -1.3531863049924091E1
1.086367906161924E1 -1.3545046033055652E1
1.086946058673612E1 -1.3557505691437253E1
1.0875404522143763E1 -1.356942347102058E1
1.0881538797999772E1 -1.3580690390836997E1
1.0887886897317538E1 -1.3591305781553585E1
1.0894414858290181E1 -1.3601304991562234E1
1.0901124164516778E1 -1.3610751015614435E1
1.090804849827951E1 -1.3619555260180018E1
1.0911596783527512E1 -1.363931528537461E1
1.0912064219888684E1 -1.3671305900085343E1
1.0913419103389808E1 -1.370314832889635E1
1.1042014042988656E1 -1.3502298443123413E1
1.1045857927635915E1 -1.3514834640402674E1
1.1049658637916178E1 -1.3527478345511184E1
1.1053317843379745E1 -1.3540299228133753E1
1.1056946370079682E1 -1.3553229465986584E1
1.1060535453360982E1 -1.3566277397855373E1
1.1063989302491043E1 -1.3579525161923597E1
1.1067396450588454E1 -1.359291307677221E1
1.1070887711433267E1 -1.360632666274096E1
1.1074319797795937E1 -1.3619889815805582E1
1.1077656122816048E1 -1.3633650894304653E1
1.1020106262874293E1 -1.3790891759724726E1
1.1024069900298114E1 -1.3761923375965045E1
1.1029356973494613E1 -1.3775797388024987E1
1.102430421031391E1 -1.3818191447721604E1
1.1020789180783638E1 -1.3864482382001881E1
1.1022976876784542E1 -1.3893606721173937E1
1.1032036189801463E1 -1.388765537546289E1
1.1040490695583742E1 -1.3892134239790696E1
1.1048998531314096E1 -1.389690996144304E1
1.1056158903031323E1 -1.3904134733645058E1
1.1063212451923679E1 -1.3911692041306813E1
1.1070134717132902E1 -1.3919676720654675E1
1.107704637028371E1 -1.392776498377112E1
1.1083869852615663E1 -1.3936133147935022E1
1.1090640009265767E1 -1.3944652728071974E1
1.1097158391326571E1 -1.3954871085784221E1
1.110251073968093E1 -1.3967207089825678E1
1.1107506507170626E1 -1.398169582785433E1
1.1112582196861648E1 -1.399590475225806E1
1.1117760928951999E1 -1.4009734191635298E1
1.1123038446050877E1 -1.4023259957042711E1
1.1128382809512827E1 -1.4036593200711726E1
1.1133810426453321E1 -1.4049578312799E1
1.113929622564532E1 -1.4062373032152626E1
1.1144870142676337E1 -1.407476597690089E1
1.1150493779977316E1 -1.4087020478876813E1
1.1156176550251663E1 -1.4098973178822956E1
1.1161924714001133E1 -1.411070621310131E1
1.1167726643084066E1 -1.4122133268972526E1
1.1173584044103897E1 -1.4133358424575098E1
1.1179478726531439E1 -1.4144389139672493E1
1.1185445065739959E1 -1.415514092348619E1
1.1191424857651382E1 -1.4165750306448034E1
1.1197450084114525E1 -1.417618662736766E1
1.1203540635671393E1 -1.4186366855641438E1
1.1209699214789584E1 -1.4196269327261602E1
1.1215857020240392E1 -1.4206119605943035E1
1.1222046398290168E1 -1.4215827850284956E1
1.1228345826528006E1 -1.4225191412482594E1
1.1233875046020373E1 -1.4237588796980512E1
1.1237111600659189E1 -1.4260085968217417E1
1.1240696607636792E1 -1.428206568539765E1
1.1244513144740797E1 -1.4304195922803766E1
1.1248520552986314E1 -1.4326552247680079E1
1.125276445538765E1 -1.4348850704670145E1
1.1373398899846269E1 -1.4124911090041264E1
1.137787009429545E1 -1.4136770874001588E1
1.1382396751933554E1 -1.4148613481614298E1
1.1386843706471598E1 -1.4160536903405148E1
1.1391280535918511E1 -1.4172488606436042E1
1.1395769009874405E1 -1.4184422938160036E1
1.1400173449815583E1 -1.419644672410537E1
1.140457264858537E1 -1.4208496484697058E1
1.1408906360983325E1 -1.422059407732336E1
1.1413080582550215E1 -1.4232785061199463E1
1.1417307509559492E1 -1.424495515426575E1
1.1421507623016263E1 -1.4257171556747691E1
1.1425663154325596E1 -1.4269452892987983E1
1.1429804650877083E1 -1.428177160295392E1
1.1434006646813932E1 -1.4294062071611226E1
1.143809520332566E1 -1.4306485522916963E1
1.1442211653246368E1 -1.4318911556290573E1
1.1446412523949508E1 -1.433127699010257E1
1.1450593566342059E1 -1.4343694046080483E1
1.1454788482573939E1 -1.435611490244889E1
1.145891436785617E1 -1.436863652848758E1
1.1463058989955163E1 -1.438117409489004E1
1.1467241128535564E1 -1.4393695185427857E1
1.1471406777904662E1 -1.4406259713351467E1
1.1475558212903445E1 -1.4418869831196307E1
1.1479757932301451E1 -1.4431450801336155E1
1.1483935492535858E1 -1.4444081010017632E1
1.148814399613183E1 -1.4456713565138532E1
1.149233417292473E1 -1.446939497062982E1
1.1496549257041423E1 -1.4482067315466724E1
1.1500762846831003E1 -1.4494772503795874E1
1.150500378645315E1 -1.4507470412898002E1
1.1509267801037918E1 -1.4520163579870063E1
1.1513487634189158E1 -1.4532953277923951E1
1.1517724508113574E1 -1.4545747081362258E1
1.1521979466271054E1 -1.4558549710813823E1
1.152624847463047E1 -1.4571364275576602E1
1.1530541511895391E1 -1.45841634188069E1
1.1534828669579166E1 -1.4597014989604965E1
1.1539148764076765E1 -1.4609833895386615E1
1.1543501529155723E1 -1.462263576425287E1
1.1547766306219474E1 -1.4635620036088884E1
1.1558101379421423E1 -1.4652914042616361E1
1.1564912165159289E1 -1.4661513859455395E1
1.1571620762082755E1 -1.4670314821110559E1
1.1578418508487829E1 -1.4678993307592016E1
1.1585196232061904E1 -1.4687744450795119E1
1.1591932661360598E1 -1.4696568941331767E1
1.1598777012804112E1 -1.4705265336069724E1
1.160551993453525E1 -1.4714154602540864E1
1.1612238758569841E1 -1.4723088264276408E1
1.161896617172382E1 -1.4732048568976284E1
1.1625639290134977E1 -1.4741098147412346E1
1.1632393458737882E1 -1.4750062663579378E1
1.1639038685123332E1 -1.4759201849031458E1
1.1645757186324188E1 -1.4768254941936203E1
1.1652488851748245E1 -1.4777315960828705E1
1.1657396151130017E1 -1.4788794613764091E1
1.1662295351245739E1 -1.480028151619861E1
1.1667206816172811E1 -1.481174747809785E1
1.1672135622147714E1 -1.4823194016226001E1
1.1677073312877656E1 -1.4834622352904244E1
1.1682085056485727E1 -1.484594896982576E1
1.1687083799322616E1 -1.4857296589035458E1
1.1692098042383996E1 -1.4868610463616532E1
1.1697154008122515E1 -1.4879869429460568E1
1.1703476514236796E1 -1.4902235435741222E1
1.1708452120504939E1 -1.4913690152216292E1
1.1713421222648417E1 -1.4925156864060854E1
1.1718393712750032E1 -1.4936612121544336E1
1.1723387077623988E1 -1.4948017534734852E1
1.1728378883874798E1 -1.495942308491908E1
1.173340969808536E1 -1.4970758048775766E1
1.1738400427063553E1 -1.498214992128495E1
1.1743421058666588E1 -1.4993474223580723E1
1.1748433609205284E1 -1.5004813796597698E1
1.1753455090243015E1 -1.5016115288944231E1
1.1758498458283267E1 -1.502737762455464E1
1.1763525856504625E1 -1.503866656086667E1
1.1768596414436642E1 -1.5049872157695638E1
1.1773642999479337E1 -1.5061096520972171E1
1.1778692720730712E1 -1.5072327684382797E1
1.1783759084293669E1 -1.5083496121703E1
1.1788813002344273E1 -1.509469276385297E1
1.1793917973398443E1 -1.510579325484829E1
1.1798981493783936E1 -1.5116934284868348E1
1.1804085419038708E1 -1.5128021999659747E1
1.1809137487949668E1 -1.513917348047852E1
1.1814238372142217E1 -1.5150236337606712E1
1.18193384928817E1 -1.516129803324605E1
1.1824451688257156E1 -1.5172323943068545E1
1.1829524036048477E1 -1.518340341264101E1
1.1834666158202262E1 -1.5194349306560783E1
1.1839763226455613E1 -1.5205376478145794E1
1.1844881301836498E1 -1.5216343817794476E1
1.1849992363464033E1 -1.5227308972238195E1
1.1855108702001596E1 -1.5238263983326355E1
1.1860215197977903E1 -1.5249226881678226E1
1.1865372158728464E1 -1.5260087944564042E1
1.18704893455434E1 -1.5271007611004105E1
1.1875625518122941E1 -1.5281879438955757E1
1.1880764989663255E1 -1.5292749474035093E1
1.1885892942284263E1 -1.5303620481202946E1
1.1891046124821482E1 -1.5314443418225094E1
1.1896184462375231E1 -1.5325269288995857E1
1.1901328811094652E1 -1.5336067901213752E1
1.1906457885449258E1 -1.5346893282149662E1
1.1911614619623943E1 -1.5357664763833691E1
1.1916767491070175E1 -1.536842707259456E1
1.1921925355994576E1 -1.5379166251402028E1
1.1927050671089933E1 -1.5389949567927708E1
1.1932217592937517E1 -1.54006656052232E1
1.193736119426272E1 -1.5411388877646356E1
1.1942529805401817E1 -1.5422076237784447E1
1.1947672298686157E1 -1.5432783274821933E1
1.1952829829621562E1 -1.5443464973487462E1
1.1957995328005861E1 -1.545412305754608E1
1.19631519646006E1 -1.5464783033351107E1
1.1968310031564894E1 -1.5475418393496401E1
1.1973493209953274E1 -1.548600887070648E1
1.197864754185314E1 -1.5496638423929868E1
1.1983824700401634E1 -1.5507214831910284E1
1.1988977023673328E1 -1.551781609730139E1
1.1994153032310475E1 -1.552838424823047E1
1.199929213936385E1 -1.5538990242530142E1
1.2004465615524202E1 -1.5549537230625138E1
1.2009652861967991E1 -1.5560027587730014E1
1.2014809555523556E1 -1.5570577810226526E1
1.201997535432713E1 -1.558110306274942E1
1.2025160286726193E1 -1.559158053639027E1
1.203033042183189E1 -1.5602057746506114E1
1.2035502261011548E1 -1.5612539889620423E1
1.2040678514033473E1 -1.5622990732475401E1
1.2045860022678928E1 -1.5633428668159572E1
1.2051031782668764E1 -1.564387472529935E1
1.205619788057347E1 -1.5654311357295395E1
1.2061378777694012E1 -1.5664710599697475E1
1.2066546617242587E1 -1.5675133784020138E1
1.207172888599435E1 -1.568550044127269E1
1.2076903125656496E1 -1.5695895996214825E1
1.2082088593861162E1 -1.570624691657941E1
1.208724845455274E1 -1.5716619512055434E1
1.2092449453963974E1 -1.5726926614939643E1
1.2097645879301965E1 -1.573722388657916E1
1.2102829596796848E1 -1.5747538541028856E1
1.2107995876486584E1 -1.5757854868262632E1
1.2113189190776517E1 -1.5768130075196465E1
1.2118364235230024E1 -1.577842030434689E1
1.21235883969481E1 -1.5788615773448235E1
1.2128761740086752E1 -1.5798891506876785E1
1.2133946332889723E1 -1.5809120955402426E1
1.2139140434732685E1 -1.581933638579039E1
1.2144317792440642E1 -1.5829572679939544E1
1.2149511763714148E1 -1.583976403425636E1
1.2154718176753788E1 -1.5849934534190965E1
1.2159919729958748E1 -1.5860085441821713E1
1.2165098770636153E1 -1.5870259423874165E1
1.2170314648990344E1 -1.5880374355994606E1
1.2175525248222943E1 -1.5890489711284449E1
1.2180702411805452E1 -1.5900644273669414E1
1.2185919760275043E1 -1.5910706633974218E1
1.2191119964581974E1 -1.5920806513306555E1
1.2196331264433278E1 -1.593087017592103E1
1.220152473011331E1 -1.5940950629162574E1
1.2206738772632075E1 -1.5950989558487716E1
1.2211964281433346E1 -1.5960999189764294E1
1.2217181050541816E1 -1.597101343407278E1
1.2222377469248734E1 -1.5981061663242858E1
1.2227574843208048E1 -1.5991078971227587E1
1.2232806883455279E1 -1.6001037100166847E1
1.2238021545973353E1 -1.6011011118584022E1
1.2243246992540822E1 -1.6020958780682612E1
1.2248059842787399E1 -1.6019831558043762E1
1.2253225335397051E1 -1.6029969927307395E1
1.2258438361678513E1 -1.604002475500562E1
1.226362468707969E1 -1.6050113622646354E1
1.2268859434603325E1 -1.606012680050401E1
1.2274080127291263E1 -1.6070152040148002E1
1.2279319034034524E1 -1.608015261102662E1
1.2284583253911595E1 -1.60901066016273E1
1.2289849957264567E1 -1.610004992115758E1
1.229513029197076E1 -1.6109970248581618E1
1.230035586531306E1 -1.6119971534075198E1
1.2304245839534216E1 -1.6131952693258626E1
1.2308219753576804E1 -1.6143826779320733E1
1.2312116630120162E1 -1.6155839006779942E1
1.231618268439465E1 -1.6167601313476435E1
1.2320082071415461E1 -1.6179657281200566E1
1.2324031838890546E1 -1.6191642635511922E1
1.2328004381233162E1 -1.620360266181948E1
1.2331829324565756E1 -1.621585623763452E1
1.2335891302174284E1 -1.6227708178857128E1
1.2339793351098692E1 -1.623986844816717E1
1.2343789457421057E1 -1.6251885865350623E1
1.2347716483883474E1 -1.6264045039006408E1
1.2351691752322216E1 -1.627614404997322E1
1.23556567306252E1 -1.628827613156844E1
1.2359574266111022E1 -1.6300542213536847E1
1.2363591759445773E1 -1.6312629787298047E1
1.2362091502555018E1 -1.6321612967066287E1
1.2367654261046313E1 -1.6330528197908205E1
1.2373195146648134E1 -1.6339510713294437E1
1.2378768767416991E1 -1.6348430532525494E1
1.2384411883747434E1 -1.6357221211422992E1
1.2389954728809947E1 -1.636623143131285E1
1.2395547846020134E1 -1.6375157926776183E1
1.2401131995401855E1 -1.638410793857254E1
1.2406671411732134E1 -1.639315096489522E1
1.2412298744219209E1 -1.6402048931322316E1
1.2417827605412702E1 -1.6411142661894466E1
1.2423424298885239E1 -1.6420114199992483E1
1.2429015888719508E1 -1.6429111586755706E1
1.2434622902276889E1 -1.6438100760654677E1
1.2440231051747848E1 -1.6447097712356236E1
1.2445799427385188E1 -1.645616545254522E1
1.2451393357243214E1 -1.6465215744816287E1
1.2456992906018092E1 -1.64742642963925E1
1.2462571177839568E1 -1.6483365015421718E1
1.2468134923248583E1 -1.6492489951161495E1
1.2473728965029276E1 -1.6501584548155723E1
1.2479335832923603E1 -1.651067475698205E1
1.24849188729185E1 -1.6519811188997224E1
1.2490558704282513E1 -1.6528874469784643E1
1.2496099286819193E1 -1.6538092895898043E1
