%%MatrixMarket matrix array real general
%
1000 1
4.7045407070073875E-11
5.983081937723654E-10
7.599147136765085E-10
8.185315119013596E-10
2.7063713189003567E-12
6.201163358351067E-10
9.59358363996412E-11
4.619612553054965E-9
1.9643997248841264E-11
8.802870908705677E-11
5.6981173631787154E-11
8.631485496502532E-9
1.8006225366961356E-11
9.71816019395855E-11
4.083488780023778E-9
2.8726877915794632E-12
6.2669190252328295E-12
6.953831086054781E-10
1.7925010437964113E-8
3.490156821793384E-10
2.239925048651866E-9
8.00095714323371E-9
9.319412642443919E-11
4.684918090614917E-8
1.4540587683487033E-10
1.0845882438194935E-9
1.2525487386282142E-10
1.7397662713812086E-10
6.092166053615651E-10
2.5860970470544175E-12
2.547875913776325E-10
5.1840820052653775E-8
3.053141438074867E-8
2.1410798741503183E-10
4.9803531498558285E-8
1.5457210211013164E-8
2.2446918294537692E-10
1.3019005054502754E-8
8.81570132354915E-8
5.008332194283515E-9
7.873652782336725E-8
8.253938916320397E-9
9.462649926635782E-8
1.1313392065163703E-11
1.5679281016589393E-10
9.919991536781783E-9
1.1498021296969874E-8
4.087340500307549E-9
1.6205725850696096E-7
1.4865485763637864E-8
2.699195330417045E-9
7.600726835952652E-11
1.3883629670325729E-7
1.0810162675850892E-7
6.408752186488186E-8
1.1802190981560036E-7
1.7223855639337395E-7
3.867366031456765E-7
3.3104362570586114E-9
5.06326097877071E-10
1.2960497547978748E-10
3.502873627937434E-7
7.439726827999939E-8
1.2985030885223259E-7
1.0687735547448735E-7
4.6508130910389136E-7
1.4066396532732016E-9
5.40970912593215E-7
9.815782615457479E-8
1.3637144899601747E-8
2.2110912483237242E-10
4.022249340727184E-7
1.7442521463243518E-7
4.498885976012301E-11
1.5484123363532833E-10
8.466000012921474E-11
4.4896100840647185E-8
5.683491470340011E-9
6.776152915285934E-7
9.161232896299009E-8
2.538344610536218E-8
7.319271826611172E-7
1.032148812651041E-8
7.989157228759739E-8
1.2346206357943968E-9
2.6460468749901696E-9
2.6364164195044055E-9
1.031520531982011E-6
9.45568345949908E-7
7.887048996393039E-7
9.601752829500614E-7
3.937201583667088E-9
2.3373214040332485E-7
3.778563882641625E-9
8.916578764188834E-9
5.801685977006468E-8
9.973769516070843E-7
1.1354232691132699E-6
6.668021242573948E-9
3.4859638702600973E-9
1.273417943633583E-9
3.4151351352504726E-10
2.1219988939186046E-10
1.109086598713242E-9
8.997469937104981E-10
6.288580477219592E-7
7.14632181922477E-10
2.4486915282247394E-8
2.4621929915360507E-7
8.051130405086561E-9
1.0363865860253854E-8
2.838207848779382E-8
6.066420762396536E-7
3.314483956059931E-7
1.1001466160891958E-7
8.58310036001177E-9
1.495831453862166E-7
5.4971914954431805E-9
9.099407894965951E-10
6.877442479868693E-8
1.051657468774759E-7
1.316631825074106E-7
1.553241349569478E-7
2.8783241605359557E-7
6.136724616623653E-8
4.57892024585379E-8
2.0547344093908024E-8
1.1294963255976737E-6
1.7190679610509536E-6
6.820377735463396E-8
1.6890606134323228E-8
1.3442091519052E-6
1.891580507444397E-6
7.240800757850934E-9
3.509714593591136E-7
5.831991713005598E-8
9.271590101831905E-8
7.142756405667238E-9
1.0892231563099126E-6
2.110824167493884E-6
2.6665618809510255E-6
2.2141261427955277E-7
7.2194138894590865E-9
1.4682116499237992E-9
7.815868826646333E-9
4.053457813078119E-6
9.016493596976871E-9
2.5028383152686265E-9
5.810391989584413E-9
1.5785582333281287E-6
1.413960044091339E-7
1.0247849457165925E-7
4.482016508706991E-7
3.805578749373097E-6
3.176412780242969E-7
6.287979354192788E-7
4.9225482862714104E-6
1.2287976432033252E-6
2.8469325497694164E-7
9.936455688001728E-7
1.7435887797900323E-9
5.7831437661082064E-8
4.542042870026167E-7
6.427919776212339E-8
7.532640720351376E-7
1.1638017347476018E-6
3.0128131356692683E-8
1.5123465885194073E-7
1.187783632234457E-7
1.1507152026892567E-6
8.602668088200312E-7
5.817542992311485E-7
3.5588201980744914E-7
1.969700105437143E-7
9.81193461728361E-7
3.3258752230117617E-7
8.985865388313346E-8
6.895505366570564E-7
4.155382008731956E-6
1.863484438848213E-8
6.034678467825095E-8
2.1628300960574125E-7
5.298464690540232E-7
5.112896444421024E-10
6.510558296418485E-8
1.2321006241791205E-6
1.2626606705869943E-6
5.093666795212632E-6
6.104467608683019E-7
8.017564950986366E-8
5.53299707408073E-6
3.190212728701914E-6
2.1757069226835773E-6
2.6300771081862E-6
3.2640310771034333E-6
3.4061001702425444E-6
1.4498278995937492E-8
5.0174255689488586E-8
1.380006640174086E-7
3.231456271281768E-7
6.622645667637696E-7
1.2025154763270552E-6
4.979932937449022E-6
1.504233660656202E-7
2.941210180714075E-7
4.993167224805734E-7
7.493973603191516E-7
1.0188721176272847E-6
1.2801066742316882E-6
9.718869263291538E-7
1.7445404344615905E-6
2.5224513700716264E-6
3.1820967123023047E-6
9.294732843328641E-8
4.769164914149783E-8
5.803054117839504E-8
4.146439691412068E-6
8.701297547885524E-6
1.0949199529876583E-7
1.7425018039425962E-7
1.9033522231567099E-6
5.579918231056886E-7
3.9083436514579403E-7
1.0312591711153927E-8
7.1169623562911236E-6
6.527029353817154E-6
2.2684324952898326E-7
7.279042617926985E-6
1.5123726281148287E-9
6.964184646804053E-7
6.06646983336963E-6
3.6621261001271464E-9
8.754736813550932E-6
3.950839140817581E-8
3.0273072117964242E-6
6.032760812406486E-7
1.8840868904718083E-6
2.3717666200309636E-6
5.138195731992812E-7
3.9842935446742437E-7
4.536161829160439E-7
8.622669923217581E-7
7.480833351777616E-7
1.4871067756649143E-7
1.4666466614087063E-7
1.4348721065267336E-7
1.3898907918471644E-7
1.332690538245558E-7
1.264115184392586E-7
1.1822989358734821E-7
1.0904411593526961E-7
9.885310256148749E-8
8.781364392988862E-8
7.633011249904765E-8
6.473157964860678E-8
7.389517568408358E-6
5.991663503945936E-6
8.550602960079575E-7
4.5930266547405705E-7
1.8899268637904588E-6
1.8858008970450333E-6
1.1065581948537875E-6
3.329671977920358E-6
1.2397085989086277E-6
1.6916774190627886E-7
2.4435023874481617E-9
6.251089270439882E-7
1.888159948171569E-6
1.1101464894898333E-8
8.730958835824797E-8
2.3289845182027196E-6
1.6471653970704018E-6
1.2360466559368702E-6
9.272616980524646E-7
1.0783561897775956E-6
8.585322458166959E-7
1.6347019291568674E-7
2.04147287344847E-7
2.0123143522892725E-7
3.559078521243514E-6
1.3000636850351285E-7
9.188443683849949E-6
3.934824277084576E-6
1.2380345558951859E-6
1.1428365970452917E-6
1.4515148928819695E-6
1.7162627020124552E-6
1.9925701648561284E-6
2.706972124160112E-6
3.0894444660806568E-6
1.4723807693866312E-6
1.6361579616948236E-6
1.4832385229793855E-6
8.838645157359894E-6
8.383049052848728E-6
8.729295386678243E-6
5.96358423860057E-6
8.368474294254403E-7
6.44812736601339E-7
7.132737310907043E-6
1.9605304089447707E-6
2.405843720740207E-6
1.7962675206219212E-6
5.963888183795754E-6
2.8597327934564497E-6
4.582608592289226E-6
1.0278956651373663E-5
1.548419513770137E-6
7.742120193453085E-6
1.6098418978884933E-5
6.878904596202213E-7
9.026005201724093E-6
2.836206832664912E-6
5.746630159616907E-7
2.3846162185955287E-6
2.4447345149263314E-6
4.240479330573036E-6
4.453926613253229E-6
3.4984386599781934E-6
4.202737634007306E-6
4.62623700002527E-6
4.702865200566773E-6
4.430549953833392E-6
5.752283770341028E-6
9.351805423988245E-6
1.8170258536980595E-7
2.8114283368453687E-7
4.238488663308478E-7
6.297834013728797E-7
8.809818019281686E-7
1.1707395417911252E-6
1.4976040941665823E-6
1.8541593611961714E-6
2.235653032025036E-6
2.6358500839275645E-6
4.235531741901978E-6
3.914945952115633E-6
3.6718663649136943E-6
3.513213966932427E-6
3.431930424052326E-6
3.41357204573751E-6
3.4667251500057947E-6
3.5841321440921553E-6
3.769219592069257E-6
4.027318980683224E-6
4.365719506104805E-6
4.7923222033147736E-6
5.318768918172547E-6
5.959459195541619E-6
6.734272114032689E-6
7.646720848861655E-6
8.717461449903751E-6
9.363640442410854E-6
8.97226583807716E-6
8.526277521010234E-6
8.039394413012377E-6
7.5283837177956425E-6
7.000740935778519E-6
6.465982682249619E-6
5.939469673733687E-6
5.424311641892191E-6
5.268016820404178E-6
5.624357348400002E-6
6.001464455049479E-6
6.3316864649059465E-6
6.542432893969023E-6
6.616253455851378E-6
6.510793507317556E-6
6.198756220275484E-6
5.608344689761696E-6
4.7663491955333845E-6
3.9348703454797956E-6
3.296849025478493E-6
2.5773787267320764E-6
1.8523937008080303E-6
1.2758694749325502E-6
7.301593919809455E-7
3.102575033012294E-7
9.291246730998726E-6
1.0412429688386876E-5
2.553779690558764E-7
1.096701688459815E-5
4.049616160841927E-6
3.048404661716796E-6
2.1954010339293874E-6
1.8671670929658922E-7
1.4960263862176255E-5
1.4972001496979737E-5
2.4823209211259647E-7
6.273568173494363E-7
1.1803738147520533E-6
1.8043245072819653E-6
2.4505226770713817E-6
3.1226312663887255E-6
3.749680823740457E-6
4.293572251709392E-6
4.806680131254695E-6
5.2691677216687406E-6
5.624902478385587E-6
5.966915854713889E-6
6.210118820775413E-6
6.468237906097552E-6
6.648130028395299E-6
6.8196087590998415E-6
7.055701836583444E-6
7.2403361954064395E-6
7.376940352838638E-6
7.494228704552902E-6
7.66285592926954E-6
7.75166154605821E-6
7.798150064957851E-6
7.796989930496779E-6
7.843361162466035E-6
7.84405684716848E-6
7.806495895544991E-6
7.74036239643925E-6
7.635412667545186E-6
7.515874013667428E-6
7.397273572198488E-6
7.214396027520933E-6
6.979809428936395E-6
6.758273644827249E-6
6.483618343682191E-6
6.104946206662916E-6
5.800356498596721E-6
5.534635180363254E-6
5.124751433426645E-6
4.708491043201539E-6
4.234038198469711E-6
3.7268486619319597E-6
3.1115095076318972E-6
2.478066937476604E-6
1.8484376043395581E-6
1.2323836378174242E-6
6.974697378365529E-7
2.7740165863369496E-7
1.4705311082188901E-5
1.4803793212784383E-5
1.4406321420693647E-5
1.593733084765878E-5
5.835844458681409E-6
3.3805171887411116E-6
1.0192412867373414E-5
1.3133656555886126E-5
1.090435412992111E-5
1.2216655685058772E-5
6.419806478380457E-7
1.2261830212682269E-6
1.9341224905016204E-6
2.5931059538154578E-6
3.1536281875968724E-6
3.707676383932096E-6
4.179005620589675E-6
4.609942391731257E-6
5.010926726909317E-6
5.422885574105546E-6
5.816623507044999E-6
6.1567879034668625E-6
6.465636381387501E-6
6.6936828189525285E-6
6.9373165765199E-6
7.15661306229117E-6
7.322095815227086E-6
7.4421524154006275E-6
7.512643794253454E-6
7.5384887909107765E-6
7.510431380019204E-6
7.430962407503871E-6
7.302328988829498E-6
7.126420197525767E-6
7.297502741436624E-6
8.519645422960592E-6
9.822330409180635E-6
1.1235077016441737E-5
1.2699155764568393E-5
1.3805337496917302E-5
1.3390330908044868E-5
1.2974338640812537E-5
1.255496555005941E-5
1.2140447636121586E-5
1.1724010990447605E-5
1.1319752031867258E-5
1.0907028534932307E-5
1.0506546323921863E-5
1.009842501554798E-5
9.69803492944512E-6
9.302498710248404E-6
8.916367462359837E-6
8.528168480032196E-6
8.149280790614114E-6
7.775627261310966E-6
7.412097036971872E-6
7.05073411267261E-6
6.692159300174976E-6
6.351334493951316E-6
6.19150808818159E-6
6.210027437705479E-6
6.221494452982417E-6
6.230491046274727E-6
6.240618258557409E-6
6.242245168065224E-6
6.242044774249655E-6
6.237657492441352E-6
6.229843378995585E-6
6.218324881682619E-6
6.203444075569863E-6
6.1819131626966636E-6
6.1562771205751445E-6
6.129956164457651E-6
6.097084909402811E-6
6.06370594109223E-6
6.024769757371812E-6
5.978420953662596E-6
5.930559306428773E-6
5.879143118453343E-6
5.822449716448013E-6
5.76508886662071E-6
5.699896598919662E-6
5.6335989091926575E-6
5.563506874063258E-6
5.490364946874075E-6
5.413488704764913E-6
5.334832808540947E-6
5.2532117789462935E-6
5.166866445013458E-6
5.079726215789703E-6
4.989963578356661E-6
4.898114343745321E-6
4.80381306198402E-6
4.708586974480478E-6
4.611340426854865E-6
4.512350231032178E-6
4.412298220688742E-6
4.31267953374787E-6
4.210147243975437E-6
4.1709543591398745E-6
4.194646847539054E-6
4.221844706726779E-6
4.236183695087778E-6
4.197109804015219E-6
4.358657504645376E-6
4.60288088805901E-6
4.857600985124091E-6
5.111116508269001E-6
5.366425790354529E-6
5.608443568052871E-6
5.863775487342915E-6
6.1048277815654015E-6
6.3404548295482345E-6
6.566648118605514E-6
6.785236850031961E-6
5.817670214344826E-6
5.224462525401798E-6
4.690623957557847E-6
4.19999223485494E-6
3.753388077933588E-6
3.365763649692871E-6
3.1472915420173637E-6
3.0902652510555824E-6
3.0304014487547826E-6
2.9696584294374557E-6
4.902981538522025E-6
4.729417916606528E-6
4.5562374638102545E-6
4.382973587898472E-6
4.215651739237197E-6
4.053243295850443E-6
3.891858440936629E-6
3.7351253640331505E-6
3.584398949500434E-6
3.4356743049765036E-6
3.2905870250808113E-6
3.1515779958231097E-6
3.0174768220990456E-6
2.8852967156918897E-6
2.7594110109669924E-6
2.6345991445224224E-6
2.5157580092424566E-6
2.3975112774098518E-6
2.2841711532366034E-6
2.1712017713650714E-6
2.060703326367497E-6
1.94997961862171E-6
1.8400844361002585E-6
1.7303445723340568E-6
1.6195763909990803E-6
1.5072355851785736E-6
1.3925831175878185E-6
1.2753042200119956E-6
1.1545057952708325E-6
1.0299506896009424E-6
9.138274111600283E-7
1.2684261258008326E-6
1.216641008850959E-6
1.1614500207653893E-6
1.1891509829624995E-6
1.3137314976811492E-6
1.4489179950174048E-6
1.599635158782526E-6
1.267721719799236E-6
1.1271983259490502E-6
9.940805101269306E-7
8.694527042999702E-7
7.521961766988029E-7
6.442896727577088E-7
5.451315073459851E-7
4.5477004418915393E-7
1.346797580880889E-5
1.1424870708108022E-5
9.661510964022234E-6
8.357184938402281E-6
7.131315665544563E-6
5.988008848041519E-6
4.945473675227135E-6
3.988113919681261E-6
3.1347195225395254E-6
2.3891544139423297E-6
2.3910234736222173E-6
2.4531949506815593E-6
2.473791449854345E-6
2.451635303148431E-6
2.38608604714031E-6
2.2805857063523135E-6
2.139493826215076E-6
1.9687118537166847E-6
1.8782496142260052E-6
2.2222722881035093E-6
3.384667192955574E-6
2.1817071223186445E-6
2.3467932549161716E-6
1.8382009656895802E-6
1.3804212613221955E-6
1.3038910973531438E-6
1.2286460440818039E-5
1.1933365291157128E-5
6.4505589951071684E-6
4.76766341276496E-6
3.0949572536744744E-6
4.090292775237522E-6
2.022875168309345E-6
4.775749803552361E-7
1.7644644067016336E-5
2.0887123063545172E-5
1.2906909725293965E-6
6.037143758927407E-6
8.28911293157242E-6
8.555512982291487E-7
4.596248705479945E-6
1.744980326093444E-6
3.281837709359052E-6
1.708947980114771E-6
3.775895566687761E-6
3.898320031527492E-6
1.2858334184968982E-5
4.870929689459029E-6
1.6153945656185241E-6
1.145402831031258E-5
9.457748736271315E-7
9.664291499271492E-6
6.346257226744887E-7
2.153484487559749E-6
4.245605645324701E-6
1.0675828289626125E-5
1.2598175749298554E-5
3.866616285262514E-6
4.633092171774005E-6
4.000295354683238E-6
3.35918179275814E-6
3.147250544118901E-6
3.273325315481795E-6
3.6935612814207485E-6
4.413542120173791E-6
5.176431250278773E-6
5.630962633167974E-6
5.360571669204429E-6
5.581019790229066E-6
7.757035126100451E-7
8.275030834718969E-7
8.587611050633792E-7
8.62613343913779E-7
8.347836345818318E-7
7.74287350708906E-7
1.2142008701217366E-6
1.5618876668489618E-6
1.3336696093645374E-6
1.1277696201049973E-6
1.0306155940116437E-6
9.604339991636564E-7
9.371212429495024E-7
9.559436917801476E-7
9.525462365568244E-7
9.257979297408075E-7
8.755277671676871E-7
8.047369816410594E-7
7.298824463710051E-7
1.0096273310718874E-6
1.338200056729073E-6
1.877015031845044E-6
2.5882755699054427E-6
3.4392186566027444E-6
4.429295933413098E-6
5.5602173533875E-6
6.833810432841882E-6
2.452212262400849E-6
1.929042832654644E-6
1.557226183856257E-6
4.66151648955455E-6
5.021314597648081E-6
5.3287618521829505E-6
5.573195264020199E-6
5.742698169817485E-6
5.827993305553847E-6
5.831072690314582E-6
5.7374643294542835E-6
6.383407522781435E-7
6.066528152968851E-7
6.816927896265356E-7
7.246660641800518E-7
7.257548916207759E-7
6.707177195324659E-7
5.529144817618339E-7
5.570966948215637E-7
5.772411490104941E-7
7.474501597556916E-7
8.875153190797428E-7
9.840339078271172E-7
1.0116221179988664E-6
9.508380727495745E-7
7.976609781009415E-7
9.620825498143372E-7
9.546690091726855E-7
1.2850344891340782E-6
6.328677917016032E-6
5.716046696460037E-6
6.242236201104634E-6
1.972048815837495E-5
8.041234493293245E-6
1.5572430339811006E-5
9.867639659441208E-7
1.7582774216028904E-7
2.3534580910296802E-7
1.0313572556513127E-5
4.829671341859224E-6
1.5372690970240647E-5
5.765407115598696E-6
6.6016298475094615E-6
7.150300746908278E-6
7.139678925895349E-6
8.883360388704027E-7
9.366701899996243E-7
8.06611134452684E-7
1.1712576861036355E-6
1.2177227086041505E-6
1.1680807289084025E-6
1.0462386157510932E-6
8.795495971373583E-7
6.946267994486297E-7
7.61587267751165E-7
7.369048068384173E-7
7.958605760199955E-7
8.947876677761419E-7
1.0485852241639112E-6
1.0760265601242014E-6
8.508233124755703E-7
9.051128091785353E-7
7.907465171584144E-6
8.161392930307248E-6
8.33647628601369E-6
8.43546122241937E-6
8.45622529904487E-6
8.40738907799884E-6
8.288444000550179E-6
8.103468219042368E-6
7.859425239602829E-6
6.215564330302121E-6
6.364182638037928E-6
9.014726703457154E-6
6.275668821151182E-7
6.452708670049508E-7
5.929292855351538E-7
5.438927446811796E-7
7.346394511418224E-6
1.80936138087117E-6
1.915834795128482E-6
2.0209020989674804E-6
2.1274737227730062E-6
2.234698685510119E-6
2.342709368306966E-6
2.4507095705200053E-6
2.559552342961235E-6
2.6665531644468327E-6
2.7760534972271443E-6
2.8846345588773826E-6
2.9901591351618048E-6
3.0982490439905114E-6
3.2023858266508924E-6
3.308991551160209E-6
3.4118700041490637E-6
3.5169569702884994E-6
3.617295189240567E-6
3.7175131804142994E-6
3.817077620271221E-6
3.913395748322941E-6
4.009603062101818E-6
4.103445023672872E-6
4.19580357469591E-6
4.286811456597031E-6
1.4253983544600758E-6
1.3642998012652418E-6
1.304450493653689E-6
1.2476112084360345E-6
1.2805540228171483E-6
1.316541642228372E-6
1.3513074469053734E-6
3.858213067031191E-6
3.6789556371383524E-6
3.5024895915349817E-6
3.3328309168905243E-6
3.164681419676326E-6
3.004497980339653E-6
2.8482800644003044E-6
2.698838604891062E-6
2.55158086311154E-6
2.4110176536001066E-6
2.2757081903056107E-6
2.144299860489136E-6
2.0192335977846522E-6
1.897507718459569E-6
1.7806370847092874E-6
1.66860462403486E-6
1.5618160127746083E-6
1.4592688622851567E-6
1.360678450562534E-6
1.266728924253896E-6
1.1769268338118471E-6
1.0912812324860315E-6
1.009936494976446E-6
9.321981506578638E-7
8.57598346752608E-7
7.867540581810709E-7
7.202108397278465E-7
6.564782227640097E-7
5.967226102881947E-7
5.397870723289681E-7
4.86970283368146E-7
4.374786358715992E-7
3.9039889928179265E-7
3.488767954908149E-7
9.181781437138595E-6
8.74254834125232E-6
8.323558296915E-6
7.916008191458318E-6
7.519711746043715E-6
7.1325107102533696E-6
6.7668645502261645E-6
6.407446838354405E-6
6.062005726159541E-6
5.729214516237116E-6
5.407969115302077E-6
5.1009010145943234E-6
4.803866685532743E-6
4.517675248405121E-6
4.247397299146668E-6
3.986742145035017E-6
3.7360626029659455E-6
3.4968017318912656E-6
3.2690276686892243E-6
3.051293978427466E-6
3.0570189349938297E-6
3.073945175970984E-6
3.0887335926737373E-6
3.10296906219051E-6
3.114196047337355E-6
3.122078334173859E-6
3.127850001441834E-6
3.1329903423698106E-6
3.134689687762373E-6
3.1361393066927023E-6
3.1343153125530493E-6
3.130866735775357E-6
3.1261452997248515E-6
3.1184122193471573E-6
3.1096933623646006E-6
3.0975057402151663E-6
3.0861469946452197E-6
3.0726135821291297E-6
3.0569318393500392E-6
3.0390836480799474E-6
3.0201900175340983E-6
2.9999353785694163E-6
2.9794813307172843E-6
2.9565581318578966E-6
2.9329546963394007E-6
2.9091490880567995E-6
2.882743510382975E-6
2.857000581791556E-6
2.8305017299585186E-6
2.802046434481309E-6
2.774537514157459E-6
2.7461381077393803E-6
2.7169495602933804E-6
2.6879650206516996E-6
2.65892818514772E-6
2.7104134036471263E-6
2.804868516355154E-6
2.8980220952920453E-6
2.9927273102112343E-6
3.0835278183753687E-6
3.1747145930231047E-6
3.2627199417850957E-6
3.3497602092817025E-6
3.435742573330896E-6
3.5199056643303295E-6
3.602201885528308E-6
3.6827966672385156E-6
3.760038147461255E-6
1.1340889761765764E-6
9.722750107200692E-7
8.268257286191197E-7
6.946732375422685E-7
6.131758617265306E-7
6.132707400584528E-7
1.5808180263397764E-6
1.5531777888626574E-6
1.520657397320248E-6
1.4845892271462361E-6
1.4436858286077598E-6
1.3997014062268902E-6
1.3517243457636635E-6
1.2998054221013587E-6
1.2452429681537403E-6
1.187614796354082E-6
1.1275667884216947E-6
1.0648145668518941E-6
1.0005166783973242E-6
9.348396187900948E-7
8.687331372092155E-7
8.014313144753502E-7
7.34045465647157E-7
6.666628310564813E-7
6.00259257724413E-7
3.9592912733757366E-6
4.295263995551936E-6
4.578501696290678E-6
3.742934887515728E-7
6.299033693711456E-7
7.73073099645403E-6
7.575294301535373E-6
7.470654770876713E-6
7.3582637055673785E-6
7.237869644151652E-6
7.2089299944638605E-6
7.2189442321813396E-6
7.202523593955373E-6
3.7291679759600773E-6
3.9519719602339975E-6
4.697314402437362E-6
8.709439013548009E-6
6.759720471094969E-6
4.878264943602684E-6
3.211080347691574E-6
1.8631814847795113E-6
1.1041437483597375E-6
1.13984245066027E-6
9.94534378905665E-7
6.0649587818048E-7
2.1606099487080283E-6
1.2596029579847346E-5
1.1865346929447277E-6
4.3595584433294965E-7
7.762666231116468E-7
9.082269835948359E-7
8.957971347390167E-7
1.1220691985043362E-6
1.97553908724109E-6
3.076951432090355E-6
4.302901753112286E-6
5.63919917798484E-6
2.620132523274725E-6
1.5923668640545543E-6
2.0462177423595182E-6
2.4998988369647163E-6
2.9279627549422775E-6
3.328363709160909E-6
3.6832636147532244E-6
1.3184993362748506E-6
3.3961400537367415E-6
3.746510466989941E-6
3.97143118683936E-6
1.3466511894152639E-6
8.605075685235417E-7
6.925847145555856E-7
5.936595343569709E-7
3.772381408607602E-7
4.72003725712548E-7
5.574609803845607E-7
6.31261234533034E-7
6.827674156750769E-7
1.0112341892374641E-5
1.007042844450692E-5
