%%MatrixMarket matrix array complex general
%
1000 1
8.020216990097385E-1 -8.022277657487618E-1
1.1340879916383322 -1.1346741677070837
1.3887771584451991 -1.3898719939885493
1.603437025769983 -1.6050898567658674
1.7924488794785602 -1.7947610198571904
1.9632499963386918 -1.9663302900861472
2.120306813478918 -2.124150332134433
2.266367549945357 -2.271187502859507
2.403580920151681 -2.4091588274625475
2.53326631387609 -2.5397940379331683
2.6565885568152448 -2.6641183613866555
2.774519426804958 -2.782816526023003
2.887243270726387 -2.8969510236751876
2.99583456018899 -3.0067090715188267
3.1004200368386745 -3.1126318835785955
3.201886602233093 -3.215121228814138
3.299993103564485 -3.3144942264839785
3.395158616864766 -3.411090882443613
3.487574414437228 -3.505395420627532
3.577916397330895 -3.5965268817915534
3.6656844766552674 -3.6858679219453694
3.751949399526633 -3.773218652399224
3.8354225247553693 -3.8583067105381783
3.9173044128722943 -3.9427993107253476
3.9976667137333193 -4.0236145264710546
4.076521419559079 -4.10374679793567
4.15346975496849 -4.182557680682745
4.22918853246254 -4.2598530000664985
4.303348297715624 -4.335647589879619
4.376445745281279 -4.4104355600364205
4.4483157341752415 -4.483911564239296
4.517608228655104 -4.555410737810462
4.587327623112284 -4.626830445437636
4.656581873397302 -4.697686299556511
4.722690279569545 -4.767703309895911
4.7912377041023655 -4.834683840134027
4.856000468354366 -4.902411598853808
4.920592077005608 -4.968043410046383
4.982004419281229 -5.033487030261134
5.047455290404851 -5.098994465666519
5.1110664357434095 -5.164480448674578
5.170024982081115 -5.225850613469757
5.230304990835049 -5.28645868308128
5.290586256015344 -5.350936736559507
5.349557681430529 -5.4121245895364245
5.407280242613464 -5.472156091629156
5.464952636295754 -5.531999941669351
5.52239908352285 -5.591538413853802
5.576613657761396 -5.647582931685174
5.634167412864396 -5.708390918914079
5.690695250611644 -5.76665664589235
5.745613137110294 -5.823173903552295
5.803862712681549 -5.879372105557053
5.856604161515463 -5.937528550700195
5.909479886662511 -5.99172912360168
5.96309066094029 -6.047485015000275
6.015499433803243 -6.103531181288383
6.070182638659482 -6.157628392390853
6.114176063320482 -6.208905331499368
6.165582755827663 -6.261620707327291
6.215560085982369 -6.314315240112627
6.2582547057549425 -6.364481246181862
6.311543407388235 -6.418478843746177
6.359559006398725 -6.471378799407304
6.409273932800486 -6.52390343522494
6.45287583375794 -6.576580654504185
6.509044482392703 -6.623155312228697
6.547607910992137 -6.678007116362061
6.599792425455888 -6.720554315292062
6.650293121806596 -6.770242139860189
6.69698950045292 -6.82097788074731
6.74272561639041 -6.879371859695375
6.7953066750436255 -6.916305441975854
6.834528241872513 -6.966377380870588
6.879657880449139 -7.014295106170172
6.924444375564826 -7.061730207915759
6.966648162092593 -7.106365771600366
7.0124237351761725 -7.156710798292807
7.069936652349011 -7.197124403648065
7.096609339262942 -7.2518466404666215
7.1466963137866 -7.295817753952778
7.176391326743924 -7.330356694963144
7.228194029662789 -7.385747524112189
7.268192939614369 -7.428798012959058
7.314033528848307 -7.477028053904688
7.355799638534298 -7.522126520430543
7.397321047707728 -7.5663854930037315
7.422395357015559 -7.618698467782948
7.464206474856085 -7.662735809680811
7.506735779627079 -7.706628971189054
7.54557785943662 -7.751044139388301
7.601758243474831 -7.7852263798062635
7.633610605577753 -7.8300753697106735
7.682014815292776 -7.871283519019647
7.721263945308913 -7.913546984957697
7.766762710811277 -7.9545266653275934
7.786306380846018 -8.013460825267778
7.830098805767061 -8.021829568845119
7.878430353856997 -8.084674709288208
7.917234734060633 -8.125690150169367
7.956229867491151 -8.16726505624861
7.994999366796298 -8.208673519900726
8.033232824194782 -8.24984187948187
8.071252228856542 -8.291274530379273
8.109217440168514 -8.331899890132904
8.128656353448292 -8.376845252307936
8.184063056566641 -8.412840408349329
8.217313073809327 -8.4544092561719
8.246707391280651 -8.497564855642027
8.29640339199647 -8.532962847714844
8.33325782705012 -8.572684522707927
8.371193760171295 -8.61157147001979
8.386336224233373 -8.660735760312441
8.42670904414858 -8.697880597833167
8.468034911833508 -8.734574694931995
8.50943107365087 -8.771190751361008
8.537161358653522 -8.811786208918042
8.579811787080857 -8.847081150463652
8.616109204262644 -8.885378721849024
8.64642603188983 -8.928032549068798
8.679643751713844 -8.966939157948378
8.713144432217703 -9.005240659147084
8.746601726943265 -9.043184788335834
8.777118003335193 -9.082139662281602
8.817824110550378 -9.113856656182852
8.852786713130337 -9.151430507734347
8.890194639082905 -9.191892826643972
8.89694518234212 -9.231096855872604
8.92405204165255 -9.272543068241163
8.988545280245242 -9.305742880222171
9.025127208177723 -9.34040573658749
9.029480963507796 -9.38793134721645
9.055315943551749 -9.42430458290267
9.124989060646708 -9.449294727562089
9.142667404025252 -9.490206693983199
9.184778834050908 -9.52202469752535
9.215795859885699 -9.559695268332463
9.254279974995969 -9.59305138870584
9.25936024078435 -9.640460989040843
9.344518863860648 -9.625274328380273
9.30714039749364 -9.721558533991008
9.370876606962252 -9.739521970419117
9.414146712861678 -9.771151580963716
9.449546988145142 -9.805412098974115
9.477362010125566 -9.842333652188827
9.46400310614638 -9.831382517209711
9.53978943046351 -9.91255363503733
9.572261230461155 -9.946828939792235
9.602334690271928 -9.981193062120004
9.596387788917587 -1.0030113365148955E1
9.654233104342497 -1.0052982303824248E1
9.68669469845808 -1.0087092813329548E1
9.70697427210004 -1.0110338063918636E1
9.816510571377496 -1.0120405522733254E1
9.770564227587396 -1.0181020833436666E1
9.79435555715451 -1.0234423877504618E1
9.790074056785123 -1.0306533890961544E1
9.842417168962978 -1.0303205516745045E1
9.890857730620489 -1.0328781088498271E1
9.906728453573226 -1.0342536716471603E1
9.967448238832517 -1.0390486082946449E1
9.99022842236864 -1.0428035125189528E1
1.0003836457832122E1 -1.0463468145609735E1
1.0048200773994088E1 -1.04937644156284E1
1.0054601570884435E1 -1.0526844095569865E1
1.007575392819787E1 -1.0559684484522249E1
1.0140204038223084E1 -1.0595793496388834E1
1.0162186302835007E1 -1.0633087524332382E1
1.019170198549466E1 -1.0664084582844572E1
1.0193957388508712E1 -1.0705890524198082E1
1.0227965598023546E1 -1.0737499666928088E1
1.0262610828354195E1 -1.0768569359012048E1
1.0297220364382328E1 -1.0799284394953009E1
1.0331240417453843E1 -1.0829832315904781E1
1.0338780995761228E1 -1.0868948148393912E1
1.0382010370213752E1 -1.0895305414947119E1
1.0419488158826297E1 -1.0921644825378982E1
1.0427304564852298E1 -1.0960382169390389E1
1.0414887485186956E1 -1.0943031183814785E1
1.0509278163879385E1 -1.1013591090492671E1
1.0533118474753554E1 -1.1049521962893683E1
1.0552452171780986E1 -1.1084802324587613E1
1.0576184335891252E1 -1.1089360686746723E1
1.0626387985877182E1 -1.114191567273646E1
1.0642617739063418E1 -1.1170861281029314E1
1.0641293359440057E1 -1.1230235857332943E1
1.0666733383062848E1 -1.1260341627906286E1
1.0662515978554312E1 -1.133039080798158E1
1.0732689257142077E1 -1.1315198714942918E1
1.0777971010116985E1 -1.1335753172045989E1
1.0733536035215732E1 -1.1420619149760055E1
1.0776502000298919E1 -1.1432706178911221E1
1.0813199352288535E1 -1.1454706362351848E1
1.0834881418988187E1 -1.149057216016838E1
1.0855364620673992E1 -1.1527807921863591E1
1.0880467843595694E1 -1.1560406081920908E1
1.0970684577477355E1 -1.1548235935781177E1
1.0992539264347547E1 -1.158018385227802E1
1.1012518695799333E1 -1.1613171868639208E1
1.1030519236299467E1 -1.1647629861984715E1
1.10467650203946E1 -1.1683881306378616E1
1.1061873906598064E1 -1.17219381266801E1
1.1046070667421677E1 -1.1784697776811544E1
1.1143349530888276E1 -1.1770001398439204E1
1.1162994274544722E1 -1.1804009473463745E1
1.1182211572113827E1 -1.1838392210549006E1
1.1201586044254102E1 -1.187276004336922E1
1.12214952195986E1 -1.1906808709993793E1
1.1242176167327184E1 -1.194033088754705E1
1.1278630251202006E1 -1.1974026904300278E1
1.1292673239541763E1 -1.2015469747512858E1
1.1309218028829838E1 -1.2055074333274462E1
1.1328276948526314E1 -1.2092481243382322E1
1.1401348174253178E1 -1.2068279195108493E1
1.142999599754194E1 -1.209559132740334E1
1.1454064677828471E1 -1.2125765488215526E1
1.1409328042595067E1 -1.2209688734308129E1
1.141504480454734E1 -1.2285854724812493E1
1.1525295074441415E1 -1.2217509628978508E1
1.1546376703594458E1 -1.2249207315163483E1
1.1528266820805827E1 -1.2300313998642427E1
1.1590569377458804E1 -1.2269312593165287E1
1.1621032840930283E1 -1.2301641237333806E1
1.1658618847362984E1 -1.2358590084033175E1
1.1617141344398968E1 -1.250135147331385E1
1.1679960697266557E1 -1.254120000094746E1
1.1720142769611714E1 -1.2461935131494217E1
1.182832890907403E1 -1.2594538566910801E1
1.1786034996953772E1 -1.2500102744546467E1
1.1790881887544177E1 -1.2569945441955783E1
1.1808823790229209E1 -1.268557678960047E1
1.1854500489082756E1 -1.2588783731820357E1
1.180614157721905E1 -1.2752961494452563E1
1.1896278894018685E1 -1.2650683304438703E1
1.1865717302497305E1 -1.2740977975278296E1
1.1922460642686348E1 -1.273054604530668E1
1.1924752830169071E1 -1.2782908594344093E1
1.1941509752735465E1 -1.2817535734165153E1
1.1993554899055068E1 -1.2811684851382223E1
1.2020484811398724E1 -1.2837076009250085E1
1.2041864472852575E1 -1.2866590271011217E1
1.205361204950801E1 -1.2902605886547574E1
1.2078328846604231E1 -1.2926891839153216E1
1.2124840124697528E1 -1.294269635970636E1
1.2148255491094943E1 -1.2970889950477764E1
1.217169586225164E1 -1.2999002403947197E1
1.2195177712456285E1 -1.3027024852257812E1
1.2218698567342965E1 -1.3054955280107649E1
1.2242256924193999E1 -1.3082789074776782E1
1.2265873814758068E1 -1.311051171393739E1
1.2289533857750087E1 -1.3138123324509772E1
1.2313247323041189E1 -1.3165610538888041E1
1.233701474684217E1 -1.3192963005473477E1
1.236081724047247E1 -1.3220180785251037E1
1.2384640731021145E1 -1.3247261063370795E1
1.2262975596266042E1 -1.3284458975607834E1
1.2301015900575685E1 -1.3313937931149717E1
1.2417115414519724E1 -1.3347507281430556E1
1.2449950245486464E1 -1.3364486746048813E1
1.2444927203073883E1 -1.3424154128648727E1
1.2468548845912448E1 -1.3453355636979603E1
1.2500856534268607E1 -1.3463054354645166E1
1.2501277353572375E1 -1.3534786226266437E1
1.2544168576867254E1 -1.352294897327672E1
1.2599180515536622E1 -1.3525053301685622E1
1.2640684811685999E1 -1.3535622311185582E1
1.2692944169156563E1 -1.3602427748495057E1
1.2627325486331387E1 -1.3534922749465675E1
1.270165687977229E1 -1.36176432237967E1
1.2712250050580998E1 -1.3651046443065496E1
1.2659605754749453E1 -1.3679823245034246E1
1.2697395302305347E1 -1.371723310300745E1
1.272861018559017E1 -1.3739244572873089E1
1.275897868808242E1 -1.3763946193923895E1
1.2775517164783842E1 -1.3788180553105308E1
1.2804159489201698E1 -1.3817042953517506E1
1.2862215320731234E1 -1.3850330837059065E1
1.2881132671067224E1 -1.3878538151901424E1
1.2902863225136073E1 -1.3905314962590317E1
1.2830208614737549E1 -1.3927928798376609E1
1.2950352003953071E1 -1.3955834516952228E1
1.2800910020432289E1 -1.398259797660004E1
1.2889038880553658E1 -1.4019640098113783E1
1.2966078520015364E1 -1.4044760286848195E1
1.2989952714580232E1 -1.4071029505106821E1
1.3002066340360853E1 -1.4097972825560655E1
1.3016043921890091E1 -1.4124446862373237E1
1.3030197830424296E1 -1.4150748701204556E1
1.3035699480722851E1 -1.4177145593634686E1
1.3049750528110476E1 -1.4206358150364089E1
1.3104792643801698E1 -1.4226616839699554E1
1.3121932196870716E1 -1.4255676659844946E1
1.3147101447641333E1 -1.4283100452416921E1
1.3051350551862074E1 -1.4269002138680388E1
1.3076523059351658E1 -1.4296861851312242E1
1.3093025845748365E1 -1.4321830741342959E1
1.3146004247263242E1 -1.4356873780595446E1
1.327047345062578E1 -1.441245921588733E1
1.329815674872053E1 -1.443671055337179E1
1.319242308237275E1 -1.44578807183768E1
1.3295983923558495E1 -1.4480047127886442E1
1.330782618921664E1 -1.4514923619967321E1
1.3359466482904116E1 -1.4574428874930204E1
1.3345271328892396E1 -1.4668637443873457E1
1.339310680017529E1 -1.4652847052877405E1
1.3405333660273072E1 -1.4710851779704168E1
1.340944756500661E1 -1.4810351964914293E1
1.3479012849577721E1 -1.4713115558956867E1
1.3628052608908687E1 -1.484214810842788E1
1.3390237793706962E1 -1.4498001401451658E1
1.3534277006954456E1 -1.472650369348378E1
1.3407948549101269E1 -1.4739340888322094E1
1.3516513963922565E1 -1.4768761406568185E1
1.3600639706307573E1 -1.4814114722132242E1
1.3568085947788163E1 -1.4850005333633199E1
1.3585596049159479E1 -1.487157127085631E1
1.3571299771715795E1 -1.4898902637904396E1
1.3586833859214583E1 -1.4921056745747624E1
1.3623201200048506E1 -1.4948295632201427E1
1.3630238361283856E1 -1.4973706641671134E1
1.3642726021093695E1 -1.4999408308709983E1
1.3661017771359985E1 -1.5025682950233406E1
1.3685057092639024E1 -1.5052498988582263E1
1.3683405992950474E1 -1.5074537342472608E1
1.365588678991529E1 -1.5088367464354373E1
1.3863094605481383E1 -1.5121254491758583E1
1.3875257568759942E1 -1.5148520344058527E1
1.3886096669395892E1 -1.51756744365681E1
1.3895255004351917E1 -1.5202690732706326E1
1.3904032781915376E1 -1.5229078051566459E1
1.3912776212259358E1 -1.5254876235458433E1
1.3921528833225262E1 -1.5280178539442845E1
1.3930478688939662E1 -1.5305056727854048E1
1.3939684331303143E1 -1.5329591916727594E1
1.3949217687415222E1 -1.5353845227658514E1
1.3936756069861461E1 -1.5378304388193794E1
1.3961405013892925E1 -1.5403538713030162E1
1.3984791499640641E1 -1.5428564815568071E1
1.4006643080736556E1 -1.5453383061099085E1
1.4026987382461595E1 -1.5478016906141287E1
1.4046052630418634E1 -1.550249290553985E1
1.4063651159380036E1 -1.5526783140591625E1
1.4079952623400269E1 -1.5550884021253333E1
1.4094948960378028E1 -1.5574761322500363E1
1.4108632276120405E1 -1.5598375166261938E1
1.4120993507089795E1 -1.5621670790196008E1
1.413204841358553E1 -1.5644592618179056E1
1.4141781675780383E1 -1.5667068835347834E1
1.4150171828801442E1 -1.5689020766660063E1
1.415715708767718E1 -1.5710348241281533E1
1.4162942550802235E1 -1.5731005798966523E1
1.4167502486185315E1 -1.5750893935230412E1
1.4177942657013144E1 -1.5776121287814352E1
1.4200863632987843E1 -1.580138376427727E1
1.422456371931472E1 -1.5826794507980104E1
1.4248934310224778E1 -1.585229918743991E1
1.4273818139223875E1 -1.587784140907749E1
1.4299167808583398E1 -1.5903382601723605E1
1.4324901398206736E1 -1.5928882566661432E1
1.4350834631539994E1 -1.5954288270964732E1
1.43769450630765E1 -1.5979586076906783E1
1.4397496900630307E1 -1.6004028340174354E1
1.4409777684571134E1 -1.6027305288624824E1
1.442188115185995E1 -1.605048902449866E1
1.4434825760617647E1 -1.6073764101966898E1
1.4449606420221757E1 -1.609735109861952E1
1.4466392886611708E1 -1.612134452336847E1
1.4485784931681803E1 -1.6145917079664226E1
1.4508276087675599E1 -1.617110858312634E1
1.4535286396585546E1 -1.619711615658944E1
1.456715361238323E1 -1.6223661263392394E1
1.4600209624826833E1 -1.6250032914015E1
1.4630954684923106E1 -1.627600549422008E1
1.4665050695154104E1 -1.6301851770518414E1
1.470192312524787E1 -1.6327236250323455E1
1.4737905787018645E1 -1.6351673189543863E1
1.477734609388576E1 -1.6374586688638107E1
1.4818333200089404E1 -1.6394777106393207E1
1.4642342967577989E1 -1.6400543984361605E1
1.4646334034540812E1 -1.6417316615043855E1
1.4875199753221658E1 -1.646488434126335E1
1.4674826806542523E1 -1.6459954821057643E1
1.4791207444971631E1 -1.647380309319752E1
1.4893170820519643E1 -1.6629327450847335E1
1.491087208304413E1 -1.6629208858330696E1
1.4966066639782479E1 -1.6577557036762478E1
1.4907827754857015E1 -1.6860700858693097E1
1.4925149128890242E1 -1.6884623641230977E1
1.5014293567247568E1 -1.6651338230193794E1
1.5016535563621057E1 -1.6692637454432386E1
1.5021226061020185E1 -1.6736065304836664E1
1.5029294382016854E1 -1.6778138370037013E1
1.5039795378099369E1 -1.6818371604247602E1
1.5051822940269489E1 -1.6857500868053954E1
1.506532429623609E1 -1.6894397953420494E1
1.5079967801873893E1 -1.692879253226444E1
1.5095191166776393E1 -1.6962053767946667E1
1.51109287156417E1 -1.6993992591405387E1
1.5127176458918692E1 -1.7023775176858987E1
1.514359592390917E1 -1.705315978900323E1
1.5160308843999692E1 -1.7080754968430778E1
1.5177046369835491E1 -1.710851713215554E1
1.5193953934771331E1 -1.713493529782906E1
1.5210879305665967E1 -1.716116570479187E1
1.5227843760883507E1 -1.7188427425564026E1
1.5244884587721813E1 -1.7214813225108024E1
1.5261964816754064E1 -1.7240399275066117E1
1.5279055134432669E1 -1.726565113630699E1
1.5296125918433612E1 -1.7291665704100932E1
1.5313207498388936E1 -1.731641017645712E1
1.533028545081927E1 -1.7340482387946814E1
1.5347339371138473E1 -1.736379800705423E1
1.5364375917033371E1 -1.7387824713526598E1
1.538139206142716E1 -1.7411129715412414E1
1.5398377223772666E1 -1.743382268491026E1
1.5415319415891055E1 -1.7456042871484104E1
1.543224669862316E1 -1.7477637567485115E1
1.54491591521753E1 -1.749897306640977E1
1.5466052887591676E1 -1.752028726791431E1
1.5482937926656593E1 -1.754053816489275E1
1.5499830934183514E1 -1.755989252235517E1
1.5516711407436821E1 -1.7579373781192004E1
1.5533647405676705E1 -1.759789302841563E1
1.55506978326772E1 -1.7614502983388032E1
1.556778702419701E1 -1.7632243527087432E1
1.5584901441013523E1 -1.7650554464764273E1
1.560235413498723E1 -1.766607881023272E1
1.561997632422512E1 -1.768118413011621E1
1.5637966444716659E1 -1.7694771422432506E1
1.565638450315288E1 -1.7707150982152093E1
1.567581934084603E1 -1.7716365241415357E1
1.5696308861603182E1 -1.7723856744265216E1
1.5718226617786163E1 -1.7729643388314E1
1.5742377646719993E1 -1.7733229695064246E1
1.5769214769390336E1 -1.773584423185562E1
1.5800128429433194E1 -1.7737922938885756E1
1.5767419433137116E1 -1.80273709822007E1
1.578356306336425E1 -1.8051094555891847E1
1.5808932757074704E1 -1.8072055986740498E1
1.5829115871795366E1 -1.8111596597905958E1
1.5872183944488604E1 -1.801325461381862E1
1.5787539462043135E1 -1.7865663602157802E1
1.5696630831736394E1 -1.7866098927507185E1
1.5679739002375285E1 -1.7870339726813242E1
1.571992434008336E1 -1.790675399338442E1
1.5720909390540115E1 -1.7923457553863244E1
1.5953396642141634E1 -1.7989037015331036E1
1.5943804438915347E1 -1.8012401247565876E1
1.593607425357542E1 -1.803343958234826E1
1.5933677049565748E1 -1.8053384145188346E1
1.5935808378776423E1 -1.807324585541982E1
1.593929972484029E1 -1.8092951897230066E1
1.5945358574441698E1 -1.811300104214837E1
1.5952731102877653E1 -1.813325158805545E1
1.5961033973401065E1 -1.815367252185423E1
1.5969445405055648E1 -1.817413248100335E1
1.5978427596914598E1 -1.819469056944341E1
1.5988482416326837E1 -1.8215487599132E1
1.5999166089841099E1 -1.823642756427443E1
1.601118471772848E1 -1.825770053390266E1
1.602301314437896E1 -1.8278985736206142E1
1.6035248246217314E1 -1.830041832428133E1
1.6048298087570103E1 -1.832208952564996E1
1.6062011836001382E1 -1.8343998031778543E1
1.6076431413501577E1 -1.8366122209088967E1
1.6091476523783186E1 -1.838847722670289E1
1.610727776124158E1 -1.8411065718245585E1
1.612380623283846E1 -1.8433921030113126E1
1.6141042984777474E1 -1.84569730717948E1
1.6158983490146387E1 -1.848023736797951E1
1.617176360015577E1 -1.850154502820835E1
1.616986723039393E1 -1.8516958733692498E1
1.6168334904543077E1 -1.853181650004072E1
1.6166799019019482E1 -1.854598654823244E1
1.616593187286564E1 -1.855983777179234E1
1.6169726755510574E1 -1.8575616909756132E1
1.6189140818837366E1 -1.8599705133523145E1
1.6208623586519927E1 -1.862380168193566E1
1.622820674527441E1 -1.8647901674064414E1
1.6247806322441388E1 -1.867196764735538E1
1.626749920896784E1 -1.869603217580416E1
1.628713145359863E1 -1.8720019665801555E1
1.630693835920583E1 -1.8744049640765542E1
1.6326686967206868E1 -1.8767998264491272E1
1.6346614178061845E1 -1.879198633179099E1
1.636654254472518E1 -1.8815916218051438E1
1.6386508939082212E1 -1.883979965648114E1
1.6406456476358105E1 -1.8863626620632058E1
1.642653793710281E1 -1.8887441420585667E1
1.6446607330330163E1 -1.8911190325614026E1
1.646672136063603E1 -1.8934890435165865E1
1.648681279873911E1 -1.895851724842751E1
1.6506998638767623E1 -1.898211158990038E1
1.6527277918338164E1 -1.9005672851071385E1
1.654742114900142E1 -1.9029101462293987E1
1.6564769346857116E1 -1.905150224839785E1
1.657924603745573E1 -1.907289142233428E1
1.659381670785508E1 -1.9094299251305582E1
1.6608407898354926E1 -1.9115707554900332E1
1.6622961723896715E1 -1.9137092402138794E1
1.663763187542645E1 -1.9158502419935413E1
1.665231195904546E1 -1.917990892319262E1
1.6667039357794884E1 -1.920131904184904E1
1.6681802180893843E1 -1.922273333340181E1
1.6696604755953796E1 -1.9244149556700407E1
1.67114418355262E1 -1.9265567768954625E1
1.6726366198443895E1 -1.9287005791799523E1
1.6741337469336372E1 -1.9308448686989426E1
1.675630131266966E1 -1.9329882738227322E1
1.677135195690961E1 -1.935133353724441E1
1.678639302055749E1 -1.937277636163488E1
1.6801505964568353E1 -1.9394230449260863E1
1.6816721865361185E1 -1.941570739006873E1
1.6831946198505673E1 -1.9437182587546033E1
1.684721239809889E1 -1.9458659429139285E1
1.6862549890498887E1 -1.9480152577920922E1
1.687788353828963E1 -1.9501633091826633E1
1.6893332717212765E1 -1.9523139225884567E1
1.6908787400188814E1 -1.954463903839052E1
1.692429319387132E1 -1.956614443778991E1
1.69398389023909E1 -1.95876525335508E1
1.6955437328681096E1 -1.9609165134730205E1
1.6971056688816546E1 -1.963067639671257E1
1.6986718100260198E1 -1.9652186527459065E1
1.700245397720223E1 -1.9673707796661294E1
1.7018197392867478E1 -1.9695219022171166E1
1.7033981732550902E1 -1.9716731896049048E1
1.7049798877524587E1 -1.9738241034192505E1
1.7065656963354794E1 -1.9759748174464555E1
1.7081529977919054E1 -1.978124763085636E1
1.7097438935330793E1 -1.9802740254681698E1
1.711338072817443E1 -1.9824228240042462E1
1.712934442147085E1 -1.9845710710291513E1
1.714530198521227E1 -1.9867170871889556E1
1.7161319458741417E1 -1.9888632454092576E1
1.717610714448967E1 -1.9909823307942137E1
1.7189657176637265E1 -1.993074005022593E1
1.7203122397698323E1 -1.9951617394397918E1
1.7216820028736617E1 -1.997254465241999E1
1.7231536007580576E1 -1.999376021198937E1
1.7242395208333193E1 -2.0014168740083804E1
1.7251772119881444E1 -2.0034201366230864E1
1.7261074327740452E1 -2.005415089068329E1
1.727051101866568E1 -2.0074065468688612E1
1.728002085561791E1 -2.0093933818284537E1
1.728984697516194E1 -2.011382657579144E1
1.7299538591400797E1 -2.0133631090479433E1
1.7309538761271842E1 -2.015347093936809E1
1.731969097070754E1 -2.0173314642056692E1
1.7330046014913876E1 -2.019317828364828E1
1.734056498279701E1 -2.021306430240657E1
1.736920011989746E1 -2.0236045854028426E1
1.7392773402069555E1 -2.026033657023674E1
1.741588809622982E1 -2.0284202394848084E1
1.7438756449342936E1 -2.0307749526492316E1
1.7461303299760946E1 -2.033096481641188E1
1.7483132324703327E1 -2.0353783199612824E1
1.7501607971323253E1 -2.0375766080252998E1
1.7516535645373114E1 -2.0397014033647263E1
1.7531522267525617E1 -2.0418250900148113E1
1.7546524615676045E1 -2.043946661104215E1
1.752158453881222E1 -2.045454180283047E1
1.753825349381604E1 -2.0476078982963248E1
1.755495641862089E1 -2.0497588166742595E1
1.757170413897071E1 -2.0519063165515952E1
1.7588385827067064E1 -2.054048849126073E1
1.7605017383021764E1 -2.0561860422686326E1
1.7621675062627034E1 -2.0583202131356064E1
1.7638286818598576E1 -2.060449376755749E1
1.765482316724105E1 -2.062573644588435E1
1.7671364257434252E1 -2.0646937712055486E1
1.7687876570283347E1 -2.066809650527693E1
1.7704305493046665E1 -2.0689208068781216E1
1.7720672129222713E1 -2.0710271514619073E1
1.773704294462975E1 -2.0731298382964912E1
1.7753315117971297E1 -2.0752273301359836E1
1.776961046272564E1 -2.0773216164763983E1
1.778580878181109E1 -2.079410656654618E1
1.7802041425000652E1 -2.081496068164489E1
1.781819989285529E1 -2.0835768290484733E1
1.783440098864925E1 -2.0856539331605582E1
1.7850590494502086E1 -2.087726254883372E1
1.7866845321493564E1 -2.0897944382534288E1
1.788314014462953E1 -2.0918573425852838E1
1.7899500812972445E1 -2.093915107554676E1
1.7915971073317564E1 -2.0959672922124792E1
1.7932579031691393E1 -2.0980126043465724E1
1.7949366866613243E1 -2.1000505423494975E1
1.7966367891151794E1 -2.1020795085734136E1
1.7983645104075325E1 -2.1040977481594453E1
1.8001251015034992E1 -2.106102445600624E1
1.8018771164003297E1 -2.108099539460341E1
1.8019957134512893E1 -2.1106460761693945E1
1.8034818470834573E1 -2.112695101295475E1
1.804982503249949E1 -2.1147410002473194E1
1.8061802525916804E1 -2.1167912763879748E1
1.80703738921785E1 -2.1188431387096923E1
1.8078786996960496E1 -2.1208861728429362E1
1.80869097231977E1 -2.1229196172459584E1
1.811076569785486E1 -2.1249689589927012E1
1.8128744648353305E1 -2.1270045356413878E1
1.8146731018762857E1 -2.129027497666294E1
1.816468061876258E1 -2.131036716607858E1
1.8182640195367416E1 -2.1330313362671767E1
1.8200515919874526E1 -2.135010591633724E1
1.8218323082356093E1 -2.1369736113282144E1
1.8236045981173135E1 -2.13891969317855E1
1.8022208019529604E1 -2.1350011803820454E1
1.805540430358544E1 -2.138201075624965E1
1.808768912633718E1 -2.1412456111085096E1
1.811631617609232E1 -2.144039303746552E1
1.8145373024116207E1 -2.1467811456583306E1
1.817485790509334E1 -2.1494610363717488E1
1.8204522271346054E1 -2.1520636718162592E1
1.8234642342455803E1 -2.1545899379346977E1
1.8264894883966598E1 -2.157020408286109E1
1.8295132826258506E1 -2.1593434478288668E1
1.8307665460939482E1 -2.1613352322066138E1
1.8318650325720572E1 -2.163295373660219E1
1.8330662246459113E1 -2.1652644254053314E1
1.8343713515430984E1 -2.1672443127516885E1
1.8357829833139878E1 -2.169235343523484E1
1.8372965471490936E1 -2.1712363325995472E1
1.8389073536397508E1 -2.173243676380092E1
1.8406089511012873E1 -2.175253546174212E1
1.8421025393044854E1 -2.177249648505599E1
1.8424350270805412E1 -2.1792022236701104E1
1.841023152374253E1 -2.1808456285632545E1
1.8450367101248037E1 -2.183236311127426E1
1.8458681177605282E1 -2.185225417207588E1
1.848452858313151E1 -2.1873231082266397E1
1.851068948200033E1 -2.1893536723081276E1
1.8525925859627772E1 -2.191467098339224E1
1.8372231963510607E1 -2.183940600371741E1
1.8387533788053418E1 -2.186315531384921E1
1.8459173158122248E1 -2.192509367211797E1
1.8496124169642343E1 -2.1959990846399013E1
1.8539059236318725E1 -2.1993283624380204E1
1.8532246685162864E1 -2.2010683848012302E1
1.8588164288529427E1 -2.2029365455297338E1
1.8654206364219416E1 -2.2058314784204825E1
1.8483056508156857E1 -2.1874114647373904E1
1.849727008444764E1 -2.18530319701857E1
1.8659121605816814E1 -2.2096505384542677E1
1.8853897940438905E1 -2.22767138398596E1
1.888712403287882E1 -2.23191188456104E1
1.8757656566964595E1 -2.2234194852067894E1
1.879267646418369E1 -2.2345003280614705E1
1.878018965472733E1 -2.2303085030398833E1
1.8786914648422364E1 -2.2358010181794256E1
1.879805310217851E1 -2.234011694041022E1
1.8820398411889606E1 -2.240877100516216E1
1.8834466336859677E1 -2.2431062756871462E1
1.8865276789266307E1 -2.256764913536408E1
1.8847802914262857E1 -2.248605613351549E1
1.8844495974273737E1 -2.2430979848838945E1
1.8897603239891364E1 -2.261223130367208E1
1.8844141490628008E1 -2.2414057941415592E1
1.8918728182101148E1 -2.2631777011493188E1
1.8881480354558928E1 -2.2452934578904728E1
1.884306344194636E1 -2.247327827163076E1
1.8809881279590716E1 -2.2473444165651213E1
1.873720837476132E1 -2.2463068076927385E1
1.873032747524742E1 -2.247283494430358E1
1.8852586660929727E1 -2.2523091614468548E1
1.8851593657168234E1 -2.2537289842781117E1
1.8874143090412716E1 -2.256196946306574E1
1.8897862726137923E1 -2.258642994422991E1
1.891395335360503E1 -2.2607692663327573E1
1.8923361122090867E1 -2.2626508101479505E1
1.8927315976235572E1 -2.2643138428569433E1
1.892675324674555E1 -2.265744939553654E1
1.89267264830948E1 -2.267123295809075E1
1.89320422519421E1 -2.2687225752618005E1
1.894780779388007E1 -2.270881281530347E1
1.8956425924301033E1 -2.272751387410522E1
1.907690437510306E1 -2.278950744210351E1
1.9086371112164144E1 -2.2809049707028684E1
1.909664715939679E1 -2.2828331200446293E1
1.9107962265492816E1 -2.2847370919712652E1
1.9120484008540853E1 -2.2866191345905033E1
1.9134321913760406E1 -2.2884819504674812E1
1.913084013509694E1 -2.2908392917168577E1
1.913153288928963E1 -2.292777999361525E1
1.9150181605534556E1 -2.2947436676194624E1
1.9168623805744662E1 -2.296681866021866E1
1.918372439672661E1 -2.2986392242960154E1
1.919797472163681E1 -2.300600579962683E1
1.9210536573628545E1 -2.3025767088863546E1
1.922153404950495E1 -2.3045708278226368E1
1.9233349254665917E1 -2.3065569788407014E1
1.924602836026114E1 -2.3085339798217905E1
1.925961273611727E1 -2.3104991026063374E1
1.9274053364161283E1 -2.3124485329957803E1
1.9288747753020225E1 -2.3143827977963007E1
1.9289137564296265E1 -2.316407470210985E1
1.9289357135812036E1 -2.31835804162297E1
1.9285084671604935E1 -2.320216687770545E1
1.9278991271199573E1 -2.3219308371873115E1
1.927253984597316E1 -2.3235038969805654E1
1.9266001228706056E1 -2.324946963027133E1
1.925951275432811E1 -2.32627011946964E1
1.9253167013855126E1 -2.327487019671896E1
1.9337940835853026E1 -2.3308828978775534E1
1.936210694857775E1 -2.3330723622137807E1
1.9383699385261924E1 -2.3351610761956064E1
1.933066562861869E1 -2.3361911326580472E1
1.933637762821821E1 -2.3379951716063452E1
1.9343089224570257E1 -2.3398186680180466E1
1.9350862163007342E1 -2.3416650708962383E1
1.935979054377069E1 -2.3435388446186145E1
1.9369947696871833E1 -2.3454409749115502E1
1.9381271717513275E1 -2.3473683386721135E1
1.9393965043573218E1 -2.3493234777610784E1
1.95164003419745E1 -2.3522925289725734E1
1.9528996659714636E1 -2.354208026337913E1
1.9536854437442766E1 -2.356126344656057E1
1.954626110024987E1 -2.3580637401346777E1
1.955747522874679E1 -2.3600231485632857E1
1.9571083184510876E1 -2.3619959094341215E1
1.958768120007908E1 -2.363957801619574E1
1.9598720484105414E1 -2.365918936680182E1
1.9608982284283226E1 -2.3678752925225925E1
1.9612833987855332E1 -2.369856055876457E1
1.961877579072347E1 -2.37188711884065E1
1.9626575605930633E1 -2.3738873988933076E1
1.9636807311411154E1 -2.3758521452252257E1
1.9650029654126563E1 -2.377772074093174E1
1.96652009931418E1 -2.3790017736230798E1
1.9670329292545368E1 -2.380974548600746E1
1.9681693005626833E1 -2.3829280265271244E1
1.968125773068343E1 -2.3839592875325312E1
1.9608009749443372E1 -2.3802790814614788E1
1.962607516154333E1 -2.38278883521445E1
1.9646637159524936E1 -2.3808593977974116E1
1.9590115783647004E1 -2.3704245004530776E1
1.9669070967880078E1 -2.3808579020798657E1
1.9656941171394276E1 -2.3747334709412666E1
1.9774374299116076E1 -2.3943250696397932E1
1.9818805999666356E1 -2.4001065678211333E1
1.9847858911947718E1 -2.4042209831913222E1
2.003213815367075E1 -2.4168229850309867E1
1.9971720393260398E1 -2.4162584740143725E1
2.0075835722039006E1 -2.4252616590035665E1
1.9986867375551153E1 -2.4222371562475328E1
1.996540485781937E1 -2.4269408024816357E1
1.9980069932090917E1 -2.429452844944079E1
1.999519726860478E1 -2.4311859672670597E1
1.9929607818709616E1 -2.4225833006993877E1
1.994024307149741E1 -2.4246655982547995E1
1.995093037896164E1 -2.4261019765875613E1
1.9956250091516885E1 -2.4291373860177053E1
1.996678392810978E1 -2.431188293551106E1
1.9977607465433042E1 -2.4329444168187297E1
1.9988671354721493E1 -2.4344649359641835E1
1.9999975605122113E1 -2.4358049674926765E1
2.001153389675488E1 -2.4370171492526687E1
2.0021797835339903E1 -2.4391847279059817E1
2.0032645587652095E1 -2.440999344922202E1
2.0043534759618133E1 -2.4431467027769056E1
2.005455045143089E1 -2.4454335937381536E1
2.0066014858809805E1 -2.4478924307775014E1
2.007701161529901E1 -2.4498960585441985E1
2.0086866149753025E1 -2.451000256369631E1
2.009761171018831E1 -2.4531054799900314E1
2.0134702255180937E1 -2.467411146916453E1
2.0146864688633546E1 -2.4695888488121756E1
2.0158799033719752E1 -2.4716718502911267E1
2.0170450713457544E1 -2.4736671851214176E1
2.018182572920546E1 -2.4755745306448247E1
2.0192901650909864E1 -2.4774046339567143E1
2.0203659194320426E1 -2.4791568007386115E1
2.0214116251261196E1 -2.4808341857416533E1
2.022426612511916E1 -2.4824425680387048E1
2.022900968317641E1 -2.4823438938397995E1
2.0241535436643673E1 -2.484412944688282E1
2.0270514786521915E1 -2.4892307817750186E1
2.0228076859280996E1 -2.4764575252952653E1
2.023674407820125E1 -2.4783430877338663E1
2.024767587708341E1 -2.4800199616902322E1
2.0258629807680947E1 -2.4817031124234312E1
2.0306158589227675E1 -2.4969374594216752E1
2.0219134910680427E1 -2.4836587737692682E1
2.022689729086943E1 -2.4855200820655632E1
2.023476295766881E1 -2.4873783505961065E1
2.024265485334817E1 -2.4892329041997275E1
2.0250590203712548E1 -2.4910840927603413E1
2.025856346962526E1 -2.4929323606080956E1
2.026658808226808E1 -2.4947776447552044E1
2.0274643578323108E1 -2.4966204133856383E1
2.0282783351164063E1 -2.4984618041416585E1
2.0290912124430594E1 -2.50029936365138E1
2.029910098296557E1 -2.5021360005076016E1
2.0307386532436315E1 -2.5039721497243E1
2.0315654835539352E1 -2.5058049064585845E1
2.032403098249671E1 -2.5076387586021E1
2.033238816893915E1 -2.5094689998932456E1
2.0340841919939965E1 -2.51130066172387E1
2.0349279610664237E1 -2.51312934588772E1
2.0357823903198806E1 -2.5149590522288573E1
2.0366390884573327E1 -2.5167883319372503E1
2.0374987412174022E1 -2.5186167163472835E1
2.0383655308889097E1 -2.5204457924956134E1
2.0392339963244286E1 -2.5222741359245386E1
2.0401076950835776E1 -2.5241030209877017E1
2.040984965664389E1 -2.5259318239743806E1
2.0418654448547894E1 -2.5277606061487578E1
2.0486160019246423E1 -2.5304502527086264E1
2.049807923836255E1 -2.5323518962437436E1
2.05099875555345E1 -2.5342509596388947E1
2.0521832657381903E1 -2.536147174217225E1
2.053100559025194E1 -2.538021804810368E1
2.0540092879815447E1 -2.539894496830998E1
2.0549218978357395E1 -2.5417658359391957E1
2.0507155963560965E1 -2.543002761263411E1
2.0520313851922726E1 -2.5449721697114697E1
2.053349144486666E1 -2.5469390569167775E1
2.0546617712903846E1 -2.548900466811837E1
2.0559787659799525E1 -2.5508598173939095E1
2.0572881461694863E1 -2.5528128292657495E1
2.0585972059783895E1 -2.55476209195051E1
2.0599001835162596E1 -2.5567054622962793E1
2.061206315615718E1 -2.558646275874965E1
2.062506045411854E1 -2.560580970906809E1
2.0638021054031608E1 -2.5625107610723592E1
2.0650973139983446E1 -2.564436356445758E1
2.0663857613894518E1 -2.5663560021506957E1
2.0676742613198495E1 -2.568271521267742E1
2.0689590399381313E1 -2.570182036328407E1
2.0702397518949233E1 -2.5720872641621344E1
2.0715150596799262E1 -2.5739874292943586E1
2.072787156277673E1 -2.5758825602684844E1
2.0740565805693603E1 -2.577772659032697E1
2.075321109927572E1 -2.5796575937312358E1
2.0765818076114275E1 -2.581537483904516E1
2.0778383007687257E1 -2.5834123162867183E1
2.079090316668092E1 -2.5852836200245076E1
2.080339540724898E1 -2.5871507181115575E1
2.081586869574289E1 -2.5890122201911396E1
2.08282996033819E1 -2.590868273084226E1
2.08406619541838E1 -2.5927188661845022E1
2.0853009606302773E1 -2.5945638946035544E1
2.0865290982826853E1 -2.5964033707001747E1
2.0877550728461607E1 -2.598237007489462E1
2.0889725819643605E1 -2.600065305815933E1
2.090184562455902E1 -2.601888194378631E1
2.091394915379852E1 -2.6037046185562822E1
2.0925869256410238E1 -2.605518509792882E1
2.0781758683146432E1 -2.6035440930904777E1
2.079585878706172E1 -2.6056643447587927E1
2.0809876690830173E1 -2.6077724554295177E1
2.082389535617206E1 -2.6098729848382884E1
2.0837915600352662E1 -2.6119653721673618E1
2.0851958965406787E1 -2.6140528707818167E1
2.0865884113613482E1 -2.6161257578205575E1
2.0879859484430465E1 -2.618193385853087E1
2.0893793423075778E1 -2.620252189108615E1
2.0907697311994312E1 -2.622301676737073E1
2.092158118093378E1 -2.6243429681726553E1
2.0935405763270808E1 -2.6263740812877952E1
2.0949222078355287E1 -2.6283977905810705E1
2.096301617435523E1 -2.630413144659108E1
2.0976707376501682E1 -2.632416710370369E1
2.0990382025347465E1 -2.6344123084853088E1
2.100403188800638E1 -2.636399914698984E1
2.101762883100241E1 -2.638378537957048E1
2.1031164303553496E1 -2.6403477734476482E1
2.1044657336401226E1 -2.6423087978810155E1
2.1054152313103533E1 -2.644156277631056E1
2.1063434971270315E1 -2.6459974815028524E1
2.1072747511114272E1 -2.6478390116245492E1
2.1082061154427755E1 -2.6496801169416422E1
2.1091419494348447E1 -2.65152187160619E1
2.1100828144482616E1 -2.653364494133564E1
2.111026464794764E1 -2.655207316425189E1
2.1119703338075777E1 -2.657050174106713E1
2.112919307864669E1 -2.6588938146564633E1
2.1138677728201653E1 -2.660737106435567E1
2.1148210480416704E1 -2.662581301640186E1
2.1157762045116733E1 -2.6644255877372558E1
2.116732641077672E1 -2.666269950631955E1
2.117693390626051E1 -2.6681149212500557E1
2.1186549440416375E1 -2.6699600109752E1
2.1196216022713777E1 -2.6718056897223597E1
2.1205859056710732E1 -2.6736509009026744E1
2.12155311773217E1 -2.6754966038041626E1
2.1225231549105626E1 -2.6773424018827917E1
2.1234961031503044E1 -2.679188513914156E1
2.124470037378245E1 -2.6810347591232592E1
2.125445471981119E1 -2.6828808253240137E1
2.1264204248300885E1 -2.6847267358391218E1
2.1273988750191457E1 -2.686572749648151E1
2.128377735800194E1 -2.688418732146777E1
2.1293561389827293E1 -2.6902643527969555E1
2.1303384007198527E1 -2.6921103160121508E1
2.131318694024655E1 -2.693955672724711E1
2.1322995402443386E1 -2.695800590491747E1
2.13328320302489E1 -2.6976457896318298E1
2.134264391041238E1 -2.699490188353214E1
2.1352464669954145E1 -2.7013343708240026E1
2.136229243609918E1 -2.703178132210843E1
2.137210919840672E1 -2.7050212767229684E1
2.1381919943184798E1 -2.706864007257021E1
2.139020854376565E1 -2.708671234805206E1
2.1397707742057985E1 -2.710457014733891E1
2.1405254161015463E1 -2.7122403957081566E1
2.1412795323712256E1 -2.7140203207133144E1
2.142042570463526E1 -2.7157990518481746E1
2.142806882550382E1 -2.7175754632840803E1
2.143578328952696E1 -2.7193508399808028E1
2.1443529986502284E1 -2.7211248398264253E1
2.1451308857004523E1 -2.722897451738273E1
2.1459130787746215E1 -2.7246692378186236E1
2.146699522545374E1 -2.726440921124174E1
2.147489777777783E1 -2.728212529915839E1
2.1482862322639285E1 -2.7299852520125423E1
2.154437678462006E1 -2.7326039172692667E1
2.1558359847161434E1 -2.7344799640903503E1
2.1572191113362898E1 -2.7363355607747515E1
2.1585943074850547E1 -2.738172076785658E1
2.1598125115074584E1 -2.7399993358944563E1
2.1607235622516907E1 -2.741841023407171E1
2.1587935870370238E1 -2.743757761128695E1
2.1597712381005934E1 -2.7456068541005873E1
2.1607600894383307E1 -2.747454189093057E1
2.1617575610196216E1 -2.749300732908784E1
2.162766882116695E1 -2.751145271958909E1
2.1637842582565632E1 -2.7529879603968375E1
2.1648122475183563E1 -2.7548279871325665E1
2.1658514349700706E1 -2.7566655335761205E1
2.166898964260787E1 -2.7585000666291425E1
2.167956476671343E1 -2.7603309956591044E1
2.1690229821923907E1 -2.7621582017202964E1
2.170100035706155E1 -2.7639812092452775E1
2.171185128569069E1 -2.7657995822617472E1
2.1722785207871137E1 -2.7676127338977352E1
2.1733782038485078E1 -2.7694205376827767E1
2.1744874854473426E1 -2.7712222278878677E1
2.1756038698951585E1 -2.7730175066834544E1
2.176728173715947E1 -2.774805776682583E1
2.177858093020751E1 -2.7765867327963672E1
2.171641691796922E1 -2.774902409901795E1
2.172111742840127E1 -2.7764217741320913E1
2.1726658764933E1 -2.777988103924269E1
2.182193119533736E1 -2.783350902580867E1
2.1820976244499782E1 -2.7854837894356915E1
2.17193295447882E1 -2.7821258878635376E1
2.1730179313944227E1 -2.783826689995662E1
2.1739441618251067E1 -2.7859639307087715E1
2.1748860030485286E1 -2.7880925429768396E1
2.175844630599414E1 -2.790205988286245E1
2.1767439326626544E1 -2.7921334500593E1
2.1776199461224895E1 -2.7939594362301015E1
2.178520971314247E1 -2.795797086891066E1
2.1834825645700608E1 -2.7988318984969467E1
2.197868056277766E1 -2.8129406890809566E1
2.199883457575407E1 -2.8154571764533532E1
2.2028908741602624E1 -2.821162249165523E1
2.2021236664488246E1 -2.8214569742241988E1
2.2013196272132678E1 -2.8214469281470826E1
2.2006494226278352E1 -2.821156206588286E1
2.200258228456395E1 -2.820649167379724E1
2.200459302228907E1 -2.820658842064118E1
2.2013716605354702E1 -2.822567942827193E1
2.2021431133138886E1 -2.823969198479278E1
2.2027544657786354E1 -2.824492101750827E1
2.2050557237010462E1 -2.8302597399948993E1
2.2208424671112468E1 -2.8363588827346813E1
2.2006389234256435E1 -2.8276481618145592E1
2.2040737446754974E1 -2.829384738300925E1
2.20363105691499E1 -2.8313261613871965E1
2.20407165088627E1 -2.8331590811781076E1
2.2049801910759694E1 -2.834982349813391E1
2.2051659007400485E1 -2.836772000698111E1
2.2039560894213E1 -2.83829937983742E1
2.202773302823295E1 -2.839550699528236E1
2.201811111767349E1 -2.840641134532971E1
2.2010194065696318E1 -2.8416115544953684E1
2.2060494200102912E1 -2.844271417684497E1
2.2089519545614564E1 -2.8467432481498328E1
2.2088527569721798E1 -2.8483997745807685E1
2.2088599051181824E1 -2.8500288269029532E1
2.208987919761232E1 -2.851647821745655E1
2.2092139882236598E1 -2.8532619205792294E1
2.2095462271635334E1 -2.8548823803320616E1
2.2146372336842425E1 -2.8569072331523426E1
2.2116762999862157E1 -2.858083466099156E1
2.2120286936715235E1 -2.8597276535512076E1
2.2125746736487844E1 -2.8614233502181428E1
2.2179804300582195E1 -2.864160780649896E1
2.2201494455193707E1 -2.8663063113985586E1
2.2215400798944987E1 -2.8681844976788323E1
2.2227461346073095E1 -2.8700556954767144E1
2.2244970096722678E1 -2.8719355805013286E1
2.2249378367421386E1 -2.873775249514617E1
2.2254489323046823E1 -2.8755930188843834E1
2.2260227622063212E1 -2.8773943156050258E1
2.2266844141345857E1 -2.8791832069170226E1
2.2175589696454345E1 -2.8703073430863682E1
2.218429425657499E1 -2.8721473556874066E1
