%%MatrixMarket matrix array real general
%
1000 1
1
2
3
4
5
6
7
8
9
1E1
1.0999999999999998E1
1.2E1
1.3000000000000002E1
1.4000000000000002E1
1.4999999999999998E1
1.6E1
1.7E1
1.8000000000000004E1
1.9E1
2E1
2.1E1
2.2000000000000004E1
2.3E1
2.4E1
2.5E1
2.6000000000000004E1
2.7000000000000004E1
2.8E1
2.9E1
3.0000000000000004E1
3.1E1
3.2E1
3.3E1
3.4E1
3.5E1
3.6E1
3.7E1
3.8E1
3.9E1
4E1
4.1E1
4.199999999999999E1
4.3E1
4.399999999999999E1
4.499999999999999E1
4.6E1
4.699999999999999E1
4.8E1
4.9E1
4.999999999999999E1
5.1E1
5.199999999999999E1
5.3E1
5.4E1
5.499999999999999E1
5.6E1
5.7E1
5.799999999999999E1
5.9E1
5.999999999999999E1
6.099999999999999E1
6.2E1
6.299999999999999E1
6.4E1
6.5E1
6.6E1
6.7E1
6.8E1
6.9E1
7E1
7.1E1
7.2E1
7.3E1
7.4E1
7.5E1
7.6E1
7.699999999999999E1
7.8E1
7.9E1
8E1
8.1E1
8.2E1
8.299999999999999E1
8.4E1
8.5E1
8.6E1
8.7E1
8.799999999999999E1
8.899999999999999E1
9E1
9.1E1
9.2E1
9.299999999999999E1
9.399999999999999E1
9.5E1
9.6E1
9.7E1
9.8E1
9.899999999999999E1
1E2
1.01E2
1.02E2
1.03E2
1.0399999999999999E2
1.05E2
1.06E2
1.07E2
1.08E2
1.0899999999999999E2
1.0999999999999999E2
1.11E2
1.12E2
1.13E2
1.14E2
1.1499999999999999E2
1.16E2
1.17E2
1.18E2
1.19E2
1.1999999999999999E2
1.2099999999999999E2
1.22E2
1.23E2
1.24E2
1.2499999999999999E2
1.2599999999999999E2
1.27E2
1.28E2
1.29E2
1.3E2
1.31E2
1.32E2
1.33E2
1.34E2
1.35E2
1.36E2
1.37E2
1.38E2
1.39E2
1.4E2
1.41E2
1.42E2
1.43E2
1.44E2
1.45E2
1.46E2
1.47E2
1.48E2
1.49E2
1.5E2
1.51E2
1.52E2
1.53E2
1.54E2
1.55E2
1.56E2
1.57E2
1.58E2
1.59E2
1.6E2
1.61E2
1.62E2
1.63E2
1.64E2
1.6499999999999997E2
1.6599999999999997E2
1.67E2
1.68E2
1.69E2
1.7E2
1.71E2
1.72E2
1.73E2
1.74E2
1.7499999999999997E2
1.7599999999999997E2
1.7699999999999997E2
1.78E2
1.79E2
1.8E2
1.81E2
1.82E2
1.83E2
1.84E2
1.85E2
1.8599999999999997E2
1.8699999999999997E2
1.88E2
1.89E2
1.9E2
1.91E2
1.92E2
1.93E2
1.94E2
1.95E2
1.96E2
1.9699999999999997E2
1.9799999999999997E2
1.99E2
2E2
2.01E2
2.02E2
2.03E2
2.04E2
2.05E2
2.06E2
2.0699999999999997E2
2.0799999999999997E2
2.0900000000000003E2
2.1E2
2.11E2
2.12E2
2.13E2
2.14E2
2.15E2
2.16E2
2.17E2
2.1799999999999997E2
2.1899999999999997E2
2.2E2
2.21E2
2.22E2
2.23E2
2.24E2
2.25E2
2.26E2
2.27E2
2.28E2
2.2899999999999997E2
2.2999999999999997E2
2.31E2
2.32E2
2.33E2
2.34E2
2.35E2
2.36E2
2.37E2
2.38E2
2.3899999999999997E2
2.3999999999999997E2
2.4099999999999997E2
2.42E2
2.43E2
2.44E2
2.45E2
2.46E2
2.47E2
2.48E2
2.49E2
2.4999999999999997E2
2.5099999999999997E2
2.52E2
2.53E2
2.54E2
2.55E2
2.56E2
2.57E2
2.58E2
2.59E2
2.6E2
2.61E2
2.62E2
2.63E2
2.64E2
2.65E2
2.66E2
2.67E2
2.68E2
2.69E2
2.7E2
2.71E2
2.72E2
2.73E2
2.74E2
2.75E2
2.76E2
2.77E2
2.78E2
2.79E2
2.8E2
2.81E2
2.82E2
2.83E2
2.84E2
2.85E2
2.86E2
2.87E2
2.88E2
2.89E2
2.9E2
2.91E2
2.92E2
2.93E2
2.94E2
2.95E2
2.96E2
2.97E2
2.98E2
2.99E2
3E2
3.01E2
3.02E2
3.03E2
3.04E2
3.05E2
3.06E2
3.07E2
3.08E2
3.09E2
3.1E2
3.11E2
3.12E2
3.13E2
3.14E2
3.15E2
3.16E2
3.17E2
3.18E2
3.19E2
3.2E2
3.21E2
3.22E2
3.23E2
3.24E2
3.25E2
3.26E2
3.27E2
3.2800000000000006E2
3.29E2
3.3000000000000006E2
3.31E2
3.3200000000000006E2
3.3300000000000006E2
3.34E2
3.3500000000000006E2
3.36E2
3.3700000000000006E2
3.38E2
3.3900000000000006E2
3.4E2
3.4100000000000006E2
3.42E2
3.4300000000000006E2
3.4400000000000006E2
3.45E2
3.4600000000000006E2
3.47E2
3.4800000000000006E2
3.49E2
3.5000000000000006E2
3.51E2
3.5200000000000006E2
3.53E2
3.5400000000000006E2
3.5500000000000006E2
3.56E2
3.5700000000000006E2
3.58E2
3.5900000000000006E2
3.6E2
3.6100000000000006E2
3.62E2
3.6300000000000006E2
3.6400000000000006E2
3.65E2
3.6600000000000006E2
3.67E2
3.6800000000000006E2
3.69E2
3.7000000000000006E2
3.71E2
3.7200000000000006E2
3.73E2
3.7400000000000006E2
3.7500000000000006E2
3.76E2
3.7700000000000006E2
3.78E2
3.7900000000000006E2
3.8E2
3.8100000000000006E2
3.82E2
3.8300000000000006E2
3.84E2
3.8500000000000006E2
3.8600000000000006E2
3.87E2
3.8800000000000006E2
3.89E2
3.9000000000000006E2
3.91E2
3.9200000000000006E2
3.93E2
3.9400000000000006E2
3.95E2
3.9600000000000006E2
3.9700000000000006E2
3.98E2
3.9900000000000006E2
4E2
4.0100000000000006E2
4.02E2
4.0300000000000006E2
4.04E2
4.0500000000000006E2
4.06E2
4.0700000000000006E2
4.0800000000000006E2
4.09E2
4.1000000000000006E2
4.11E2
4.1200000000000006E2
4.13E2
4.1400000000000006E2
4.15E2
4.1600000000000006E2
4.1700000000000006E2
4.1800000000000006E2
4.1900000000000006E2
4.2E2
4.2100000000000006E2
4.22E2
4.2300000000000006E2
4.24E2
4.2500000000000006E2
4.26E2
4.2700000000000006E2
4.2800000000000006E2
4.29E2
4.3000000000000006E2
4.31E2
4.3200000000000006E2
4.33E2
4.3400000000000006E2
4.35E2
4.3600000000000006E2
4.37E2
4.3800000000000006E2
4.3900000000000006E2
4.4E2
4.4100000000000006E2
4.42E2
4.4300000000000006E2
4.44E2
4.4500000000000006E2
4.46E2
4.4700000000000006E2
4.48E2
4.4900000000000006E2
4.5000000000000006E2
4.51E2
4.5200000000000006E2
4.53E2
4.5400000000000006E2
4.55E2
4.5600000000000006E2
4.57E2
4.5800000000000006E2
4.59E2
4.6000000000000006E2
4.6100000000000006E2
4.62E2
4.6300000000000006E2
4.64E2
4.6500000000000006E2
4.66E2
4.6700000000000006E2
4.68E2
4.6900000000000006E2
4.7E2
4.7100000000000006E2
4.7200000000000006E2
4.73E2
4.7400000000000006E2
4.75E2
4.7600000000000006E2
4.77E2
4.7800000000000006E2
4.79E2
4.8000000000000006E2
4.81E2
4.8200000000000006E2
4.8300000000000006E2
4.84E2
4.8500000000000006E2
4.86E2
4.8700000000000006E2
4.88E2
4.8900000000000006E2
4.9E2
4.9100000000000006E2
4.9200000000000006E2
4.93E2
4.9400000000000006E2
4.95E2
4.9600000000000006E2
4.97E2
4.9800000000000006E2
4.99E2
5.0000000000000006E2
5.01E2
5.0200000000000006E2
5.0300000000000006E2
5.04E2
5.0500000000000006E2
5.06E2
5.0700000000000006E2
5.08E2
5.0900000000000006E2
5.1E2
5.1100000000000006E2
5.12E2
5.13E2
5.140000000000001E2
5.15E2
5.160000000000001E2
5.17E2
5.18E2
5.19E2
5.2E2
5.21E2
5.22E2
5.23E2
5.24E2
5.250000000000001E2
5.26E2
5.270000000000001E2
5.28E2
5.29E2
5.3E2
5.31E2
5.32E2
5.33E2
5.34E2
5.35E2
5.360000000000001E2
5.37E2
5.38E2
5.39E2
5.4E2
5.41E2
5.42E2
5.43E2
5.44E2
5.450000000000001E2
5.46E2
5.470000000000001E2
5.48E2
5.49E2
5.5E2
5.51E2
5.52E2
5.53E2
5.54E2
5.55E2
5.560000000000001E2
5.57E2
5.580000000000001E2
5.59E2
5.6E2
5.61E2
5.62E2
5.63E2
5.64E2
5.65E2
5.66E2
5.670000000000001E2
5.68E2
5.690000000000001E2
5.7E2
5.71E2
5.72E2
5.73E2
5.74E2
5.75E2
5.76E2
5.77E2
5.780000000000001E2
5.79E2
5.800000000000001E2
5.81E2
5.82E2
5.83E2
5.84E2
5.85E2
5.86E2
5.87E2
5.88E2
5.890000000000001E2
5.9E2
5.910000000000001E2
5.92E2
5.93E2
5.94E2
5.95E2
5.96E2
5.97E2
5.98E2
5.99E2
6.000000000000001E2
6.01E2
6.02E2
6.03E2
6.04E2
6.05E2
6.06E2
6.07E2
6.08E2
6.09E2
6.1E2
6.110000000000001E2
6.12E2
6.13E2
6.14E2
6.15E2
6.16E2
6.17E2
6.18E2
6.19E2
6.200000000000001E2
6.21E2
6.220000000000001E2
6.23E2
6.24E2
6.25E2
6.26E2
6.27E2
6.28E2
6.29E2
6.3E2
6.310000000000001E2
6.32E2
6.330000000000001E2
6.34E2
6.35E2
6.36E2
6.37E2
6.38E2
6.39E2
6.4E2
6.41E2
6.420000000000001E2
6.43E2
6.440000000000001E2
6.45E2
6.46E2
6.47E2
6.48E2
6.49E2
6.5E2
6.51E2
6.52E2
6.529999999999999E2
6.54E2
6.55E2
6.56E2
6.569999999999999E2
6.58E2
6.59E2
6.599999999999999E2
6.609999999999999E2
6.62E2
6.63E2
6.639999999999999E2
6.65E2
6.66E2
6.67E2
6.679999999999999E2
6.69E2
6.7E2
6.709999999999999E2
6.719999999999999E2
6.73E2
6.74E2
6.749999999999999E2
6.76E2
6.77E2
6.78E2
6.789999999999999E2
6.8E2
6.81E2
6.819999999999999E2
6.829999999999999E2
6.84E2
6.85E2
6.859999999999999E2
6.87E2
6.88E2
6.889999999999999E2
6.899999999999999E2
6.91E2
6.92E2
6.929999999999999E2
6.939999999999999E2
6.95E2
6.96E2
6.969999999999999E2
6.98E2
6.99E2
6.999999999999999E2
7.009999999999999E2
7.02E2
7.03E2
7.039999999999999E2
7.049999999999999E2
7.06E2
7.07E2
7.079999999999999E2
7.09E2
7.1E2
7.109999999999999E2
7.119999999999999E2
7.13E2
7.14E2
7.149999999999999E2
7.16E2
7.17E2
7.18E2
7.189999999999999E2
7.2E2
7.21E2
7.219999999999999E2
7.229999999999999E2
7.24E2
7.25E2
7.259999999999999E2
7.27E2
7.28E2
7.29E2
7.299999999999999E2
7.31E2
7.32E2
7.329999999999999E2
7.339999999999999E2
7.35E2
7.36E2
7.369999999999999E2
7.38E2
7.39E2
7.4E2
7.409999999999999E2
7.42E2
7.43E2
7.439999999999999E2
7.449999999999999E2
7.46E2
7.47E2
7.479999999999999E2
7.49E2
7.5E2
7.51E2
7.519999999999999E2
7.53E2
7.54E2
7.549999999999999E2
7.559999999999999E2
7.57E2
7.58E2
7.589999999999999E2
7.6E2
7.61E2
7.62E2
7.629999999999999E2
7.64E2
7.65E2
7.659999999999999E2
7.669999999999999E2
7.68E2
7.69E2
7.699999999999999E2
7.71E2
7.72E2
7.73E2
7.739999999999999E2
7.75E2
7.76E2
7.769999999999999E2
7.779999999999999E2
7.79E2
7.8E2
7.809999999999999E2
7.82E2
7.83E2
7.84E2
7.849999999999999E2
7.86E2
7.87E2
7.879999999999999E2
7.889999999999999E2
7.9E2
7.91E2
7.919999999999999E2
7.93E2
7.94E2
7.95E2
7.959999999999999E2
7.97E2
7.98E2
7.989999999999999E2
7.999999999999999E2
8.01E2
8.02E2
8.029999999999999E2
8.04E2
8.05E2
8.06E2
8.069999999999999E2
8.08E2
8.09E2
8.099999999999999E2
8.109999999999999E2
8.12E2
8.13E2
8.139999999999999E2
8.15E2
8.16E2
8.169999999999999E2
8.179999999999999E2
8.19E2
8.2E2
8.209999999999999E2
8.219999999999999E2
8.23E2
8.24E2
8.249999999999999E2
8.26E2
8.27E2
8.279999999999999E2
8.289999999999999E2
8.3E2
8.31E2
8.319999999999999E2
8.33E2
8.34E2
8.35E2
8.359999999999999E2
8.37E2
8.38E2
8.389999999999999E2
8.399999999999999E2
8.41E2
8.42E2
8.429999999999999E2
8.44E2
8.45E2
8.46E2
8.469999999999999E2
8.48E2
8.49E2
8.499999999999999E2
8.509999999999999E2
8.52E2
8.53E2
8.539999999999999E2
8.55E2
8.56E2
8.57E2
8.579999999999999E2
8.59E2
8.6E2
8.609999999999999E2
8.619999999999999E2
8.63E2
8.64E2
8.649999999999999E2
8.66E2
8.67E2
8.68E2
8.689999999999999E2
8.7E2
8.71E2
8.719999999999999E2
8.729999999999999E2
8.74E2
8.75E2
8.759999999999999E2
8.77E2
8.78E2
8.79E2
8.799999999999999E2
8.81E2
8.82E2
8.829999999999999E2
8.839999999999999E2
8.85E2
8.86E2
8.869999999999999E2
8.88E2
8.89E2
8.9E2
8.909999999999999E2
8.92E2
8.93E2
8.939999999999999E2
8.949999999999999E2
8.96E2
8.97E2
8.979999999999999E2
8.99E2
9E2
9.01E2
9.019999999999999E2
9.03E2
9.04E2
9.049999999999999E2
9.059999999999999E2
9.07E2
9.08E2
9.089999999999999E2
9.1E2
9.11E2
9.12E2
9.129999999999999E2
9.14E2
9.15E2
9.159999999999999E2
9.169999999999999E2
9.18E2
9.19E2
9.199999999999999E2
9.21E2
9.22E2
9.23E2
9.239999999999999E2
9.25E2
9.26E2
9.269999999999999E2
9.279999999999999E2
9.29E2
9.3E2
9.309999999999999E2
9.32E2
9.33E2
9.34E2
9.349999999999999E2
9.36E2
9.37E2
9.379999999999999E2
9.389999999999999E2
9.4E2
9.41E2
9.419999999999999E2
9.43E2
9.44E2
9.449999999999999E2
9.459999999999999E2
9.47E2
9.48E2
9.489999999999999E2
9.499999999999999E2
9.51E2
9.52E2
9.529999999999999E2
9.54E2
9.55E2
9.559999999999999E2
9.569999999999999E2
9.58E2
9.59E2
9.599999999999999E2
9.609999999999999E2
9.62E2
9.63E2
9.639999999999999E2
9.65E2
9.66E2
9.669999999999999E2
9.679999999999999E2
9.69E2
9.7E2
9.709999999999999E2
9.72E2
9.73E2
9.74E2
9.749999999999999E2
9.76E2
9.77E2
9.779999999999999E2
9.789999999999999E2
9.8E2
9.81E2
9.819999999999999E2
9.83E2
9.84E2
9.85E2
9.859999999999999E2
9.87E2
9.88E2
9.889999999999999E2
9.899999999999999E2
9.91E2
9.92E2
9.929999999999999E2
9.94E2
9.95E2
9.96E2
9.969999999999999E2
9.98E2
9.99E2
9.999999999999999E2
