%%MatrixMarket matrix array complex general
%
1000 1
5.810938407688021E-2 -5.8520925342965976E-2
8.188888084532144E-2 -8.305338354864833E-2
9.994042964400392E-2 -1.0207910342459263E-1
1.1499283562351598E-1 -1.1828774431402736E-1
1.2812312989771152E-1 -1.3272170284017754E-1
1.3984763987898136E-1 -1.4585124343993797E-1
1.5052194890915796E-1 -1.5814413370161381E-1
1.60332393790995E-1 -1.696408498256519E-1
1.694583120799333E-1 -1.8062604755970016E-1
1.7801484159976744E-1 -1.9100187380037204E-1
1.8605228276941585E-1 -2.0105561849653492E-1
1.9368027471158966E-1 -2.1061224827661873E-1
2.0083716434756346E-1 -2.2015472049850346E-1
2.0769005041535665E-1 -2.2923430641905665E-1
2.1423497877330172E-1 -2.3814595543743183E-1
2.2047973810965826E-1 -2.4678768666355813E-1
2.2646500594034286E-1 -2.5526395841319066E-1
2.3224190444288698E-1 -2.6360219039612004E-1
2.3788919625919372E-1 -2.717207246899389E-1
2.434464370246642E-1 -2.794772924888916E-1
2.476542836899399E-1 -2.8817281577877146E-1
2.5319141984751903E-1 -2.9551799980168925E-1
2.579479216295516E-1 -3.032023440538468E-1
2.6260157919489757E-1 -3.108226369346331E-1
2.670739187402297E-1 -3.1832622747892503E-1
2.714622418539928E-1 -3.2572293631226246E-1
2.755739725360744E-1 -3.331504603792847E-1
2.7949981231845306E-1 -3.404926314451824E-1
2.8335467248902596E-1 -3.47530065779681E-1
2.8735357861950955E-1 -3.541342496587048E-1
2.916435193756303E-1 -3.60327504139424E-1
2.9524547739421997E-1 -3.689530648357162E-1
2.984897696808467E-1 -3.759853990031487E-1
3.0172596961607173E-1 -3.8319777045046954E-1
3.050329876572637E-1 -3.900340820686014E-1
3.0851506773203496E-1 -3.968385527523265E-1
3.109389612652663E-1 -4.0433330810659496E-1
3.164009447213706E-1 -4.080789296048953E-1
3.171728863029649E-1 -4.180752505924455E-1
3.2077298709134705E-1 -4.2405897404453124E-1
3.2376525152619745E-1 -4.307240688139913E-1
3.249691480276328E-1 -4.388237081259269E-1
3.2864679804964425E-1 -4.436564568674263E-1
3.332381300443945E-1 -4.503174814443844E-1
3.3457541449269795E-1 -4.5734853389134744E-1
3.370411448303849E-1 -4.639586305719815E-1
3.3869334811425444E-1 -4.727641257960763E-1
3.4185085206797516E-1 -4.740306194262772E-1
3.438117260559483E-1 -4.813220288535999E-1
3.444206864679783E-1 -4.892294466350744E-1
3.491649941545773E-1 -4.975165018908272E-1
3.4997473973097004E-1 -5.024648432512728E-1
3.520192653558457E-1 -5.136962857570374E-1
3.557170756350278E-1 -5.162493344141921E-1
3.5685908663196814E-1 -5.231850272508098E-1
3.647097737658899E-1 -5.323467520574997E-1
3.6062026855642226E-1 -5.363201917394969E-1
3.616777899146461E-1 -5.451512810951895E-1
3.6582311024173675E-1 -5.487057400072443E-1
3.675212976910852E-1 -5.552707704476573E-1
3.6465221780239876E-1 -5.643293715639728E-1
3.707443635302153E-1 -5.713174702137217E-1
3.7724367880706083E-1 -5.758341788985494E-1
3.815887395080923E-1 -5.783894970974017E-1
3.764639474619995E-1 -5.900113831348607E-1
3.7756946909716393E-1 -5.932968198193839E-1
3.779529239786777E-1 -5.994864551918541E-1
3.7809597319920146E-1 -6.056780339143748E-1
3.789862383715017E-1 -6.120550765575686E-1
3.830714862592596E-1 -6.186960251137703E-1
3.852845834370091E-1 -6.263547250919493E-1
3.8396926685481897E-1 -6.307509253586092E-1
3.8905006831722216E-1 -6.386247526440701E-1
3.8909740487418387E-1 -6.451906115598285E-1
3.8766470387541446E-1 -6.463243346883838E-1
3.929094432104315E-1 -6.584284337483736E-1
3.8699923516950774E-1 -6.66879429228857E-1
3.961477967132018E-1 -6.702470453364275E-1
3.965140062980565E-1 -6.821550481317882E-1
3.978256284928965E-1 -6.903911008430694E-1
3.9869500936530483E-1 -6.888591377049297E-1
4.0980780795300165E-1 -6.933814002585011E-1
4.0155603462370554E-1 -7.070341968073441E-1
4.0336301553228354E-1 -7.080897853325193E-1
4.031534564976031E-1 -7.128752441520846E-1
4.0602802561335355E-1 -7.209196860906779E-1
4.0435902190000994E-1 -7.286114080792336E-1
4.064423936957374E-1 -7.371014620436235E-1
4.0850068633461567E-1 -7.398327133806548E-1
4.0977695185733215E-1 -7.45375661193129E-1
4.0999339763846565E-1 -7.528848140099142E-1
4.0952615123060193E-1 -7.607594814916618E-1
4.039908769027035E-1 -7.635007871778909E-1
4.0496650514448146E-1 -7.705020683197835E-1
4.0845533517720434E-1 -7.77627987942036E-1
4.088261527816738E-1 -7.795720408668396E-1
4.1341278495249373E-1 -7.907807996497829E-1
4.1265472870978837E-1 -8.00079543706048E-1
4.1899972721775797E-1 -8.040873788412419E-1
4.1798917785469497E-1 -8.083658217313442E-1
4.2074386367830374E-1 -8.161734493200387E-1
4.307084633977506E-1 -8.220252751345114E-1
4.22807332802132E-1 -8.292438344401595E-1
4.227766801541734E-1 -8.36124063622977E-1
4.1242407219655103E-1 -8.583492594271058E-1
4.2956434312276726E-1 -8.59174703017571E-1
4.26066419601958E-1 -8.54837305243071E-1
4.254131511292762E-1 -8.425027205133876E-1
4.3459350288636267E-1 -8.727297597681132E-1
4.273110838237358E-1 -8.73353836583261E-1
4.3557503586573404E-1 -8.828734968857053E-1
4.299367568054605E-1 -8.878015807377724E-1
4.385893111068948E-1 -8.956878013221539E-1
4.3861345797062795E-1 -9.014285637380829E-1
4.3686397530994237E-1 -9.069702264274251E-1
4.320784630319748E-1 -9.125739882106154E-1
4.271881036047391E-1 -9.189105165132618E-1
4.462523792220263E-1 -9.291803765109281E-1
4.340199891310423E-1 -9.322560947484587E-1
4.3614571068682634E-1 -9.448259971175089E-1
4.4623805897903357E-1 -9.531226183223841E-1
4.3677036479738E-1 -9.539911514569079E-1
4.380104905303363E-1 -9.574188248711254E-1
4.374683991743987E-1 -9.626129686008553E-1
4.326747515256938E-1 -9.693144558808614E-1
4.324853251523647E-1 -9.755179083069434E-1
4.3229339538012723E-1 -9.817091078498592E-1
4.3243190402120524E-1 -9.880472707277961E-1
4.324525409946792E-1 -9.935862817227967E-1
4.3767947347165703E-1 -1.003199195197215
4.3813378826520544E-1 -1.0087795262542854
4.3582812857612724E-1 -1.011476405386894
4.3286181158604264E-1 -1.0172046070422294
4.210960504683223E-1 -1.0153808765085826
4.424191827003237E-1 -1.0353464849790621
4.227038598830619E-1 -1.0376134383425202
4.344462042676285E-1 -1.0459646424339508
4.3063451880727494E-1 -1.0504775360859846
4.301582630809294E-1 -1.0554942875503108
4.249139491051462E-1 -1.0645878368208737
4.1881757307124634E-1 -1.0718686210306416
4.44184138896523E-1 -1.0806689910399068
4.4253587374178055E-1 -1.0857220464068502
4.4414799478659034E-1 -1.0921248569076565
4.4498830272408374E-1 -1.0994648588407732
4.389516867872312E-1 -1.10363425319381
4.4910968828491993E-1 -1.1143960832813504
4.4911443677132523E-1 -1.1194384423247652
4.531371594390699E-1 -1.12350820190722
4.4296702846076297E-1 -1.1302304104554879
4.50681024266874E-1 -1.1406389636965468
4.5124150949332553E-1 -1.147471880939765
4.4781953803541946E-1 -1.1533717164263233
4.494026264248929E-1 -1.1599356103968141
4.55018110370504E-1 -1.1656557263838376
4.512506564213261E-1 -1.1719165639969658
4.5262887876311725E-1 -1.1820517178352516
4.5296709080223024E-1 -1.1891303116034802
4.5330753082639225E-1 -1.1963548716996801
4.53643700408306E-1 -1.2036764771046942
4.5397983614373216E-1 -1.2111315362448603
4.543146494206117E-1 -1.2186707973283128
4.5465579186356275E-1 -1.2261947235078012
4.550337121612572E-1 -1.2335779992990594
4.4786946559220064E-1 -1.2269769679863107
4.55371577469049E-1 -1.2389927101141616
4.6922057865100747E-1 -1.2459382739963192
4.759904112919672E-1 -1.2482497387486697
4.5690794378191624E-1 -1.2627118671842645
4.90045069017748E-1 -1.2633210361636897
4.75469149630817E-1 -1.2534789689357604
4.4555413508925185E-1 -1.2846682109233705
4.323240746011244E-1 -1.248487296603942
4.3895850286827093E-1 -1.2749406359521405
4.5500731174689313E-1 -1.293930391894506
4.421496202336869E-1 -1.2860278841189992
4.395637649395235E-1 -1.2847914350444491
4.5852467661212143E-1 -1.315936990645512
4.550416860429878E-1 -1.3219749218046946
4.5545640834836426E-1 -1.327216737353999
4.563298928099453E-1 -1.3336360314706792
4.415937458662472E-1 -1.3370201191648057
4.4603885526963427E-1 -1.3449233310596795
4.507552439042365E-1 -1.3529819202035733
4.551000293984089E-1 -1.3609110860436253
4.556778237770457E-1 -1.3671192277022095
4.3860813356921713E-1 -1.3736660619101817
4.5698583494321177E-1 -1.3783786357326258
4.5563607606319634E-1 -1.385154721324851
4.7884190065781895E-1 -1.3774467636414969
4.83270608224715E-1 -1.3809741990383009
4.603723316116981E-1 -1.4080285178390435
4.5703592099590973E-1 -1.4122780443576772
4.264337873993318E-1 -1.3700834481227249
4.979407778454581E-1 -1.4184746103282244
4.668522140770157E-1 -1.4298679116451827
4.831948810956502E-1 -1.4456553743727918
4.81257779094878E-1 -1.4113510915839598
4.642697111921023E-1 -1.4541197829790748
4.749885555377157E-1 -1.4664658326546367
4.67656042761958E-1 -1.4692890949297246
4.551736920348408E-1 -1.481766364080484
4.789805794928873E-1 -1.481497245210011
4.766870501407554E-1 -1.4913364830349736
4.867058244311158E-1 -1.4966305250696708
4.91984630344684E-1 -1.5055330968871243
4.7815012935955814E-1 -1.507798697954807
4.0707354022778985E-1 -1.5351672376411012
4.713453843083897E-1 -1.527140415626936
4.766234464922779E-1 -1.5370413348191043
4.833900197280272E-1 -1.5448474525461842
5.082318469014335E-1 -1.4851660458972762
4.7497100625683547E-1 -1.5500901579746431
4.7568641582319793E-1 -1.55822720410152
4.750932133550039E-1 -1.5662567849245854
4.769264469549108E-1 -1.573818617284965
4.828086035462152E-1 -1.583176174578601
4.7006402655410345E-1 -1.595725916827874
4.590534431512994E-1 -1.606694054603479
4.172821994304585E-1 -1.557963296054231
5.003079704895637E-1 -1.522325311535135
4.2425655098909715E-1 -1.5725228840679202
4.107082680270012E-1 -1.5708716171115213
4.226162125839361E-1 -1.5855148782426423
4.6328249267300103E-1 -1.5869830327201722
4.6824123202765844E-1 -1.6330525513806058
5.078654009107788E-1 -1.599696272208658
4.813596365203147E-1 -1.6466643546360318
4.706603496159976E-1 -1.6546641506114812
4.112220077664568E-1 -1.6753259612771607
4.569755498885224E-1 -1.5921800336610223
4.697320214913791E-1 -1.674981244368958
4.78333690082271E-1 -1.6304186136286352
5.353530640763897E-1 -1.6861949429340366
4.916467029524065E-1 -1.6997371183114793
4.878084808075214E-1 -1.7094203948866502
5.037194693811023E-1 -1.7028506691138618
5.238538033548327E-1 -1.6857112275346489
4.6740343585536953E-1 -1.7371220710864308
4.712598194330224E-1 -1.7264688662101468
3.8061197492437115E-1 -1.7222486215968196
4.7799829392581566E-1 -1.667840329726544
4.7840560098295887E-1 -1.7495031230534466
3.967025019982934E-1 -1.7171238674321312
4.044967829925669E-1 -1.6951801899922265
5.641691996705351E-1 -1.7485808212113112
4.8270582797407874E-1 -1.7788113957490106
5.005263042718463E-1 -1.7763679783339388
4.816912662720767E-1 -1.7926252987252365
4.8551265888053063E-1 -1.7993923964332734
4.874841278307409E-1 -1.8058209496332633
4.885951268243185E-1 -1.8122039018227036
4.8684657824681254E-1 -1.8188260165198586
4.870508247757746E-1 -1.825509926921251
4.863601290370135E-1 -1.8326280942214326
4.9810897681681804E-1 -1.8386008972377075
4.9701037702865275E-1 -1.8456232938953046
5.028925922679832E-1 -1.8488525564003309
5.077308785676529E-1 -1.849494299191147
4.273974140888812E-1 -1.8319468335408429
4.2757547875363844E-1 -1.830262801124777
4.254706708299583E-1 -1.830241174153441
4.825597095391836E-1 -1.847957185740108
4.454201676343795E-1 -1.9353549058013564
3.765887229939705E-1 -1.8790346725667155
3.768430807963318E-1 -1.8854663631414694
3.775215411028986E-1 -1.891928282901734
3.786953629591292E-1 -1.8984267074080232
3.802482869667102E-1 -1.904956439520628
3.8216958104234167E-1 -1.9115254095547556
3.8467990993767E-1 -1.9181093638410076
4.015482293901881E-1 -1.92540432577335
4.4218337555903364E-1 -1.9377183804857698
4.6220459825945615E-1 -1.954212730760427
4.5918831859556475E-1 -1.9604612720227679
4.579202112660763E-1 -1.9663647545168976
4.590866843179709E-1 -1.9736899213766055
3.680766157272908E-1 -1.9429555888644834
4.1537698710755255E-1 -1.9814070114277802
4.4009881624039243E-1 -1.9906727268095037
4.928426707945102E-1 -1.9585209839400155
4.8900632811427236E-1 -2.01498570898845
4.6587800488499254E-1 -1.9717282041804474
4.126283717233938E-1 -2.0403553119683164
4.976504193234599E-1 -2.0319431808389172
4.545516573539493E-1 -2.0333454974186638
5.050438732262217E-1 -2.1278947189936637
4.785876998643511E-1 -2.0341237779073826
5.690760269775563E-1 -1.9860228505942585
4.6919492191358314E-1 -2.0596527682856998
4.381180711101813E-1 -2.0085632001754297
4.5505143788277236E-1 -2.0733598165883613
4.0006499451350064E-1 -2.0697699248124684
4.702805507624774E-1 -2.086345684582187
4.4654376942266405E-1 -2.0891336336601674
4.582014753780497E-1 -2.093170473584629
4.483727771525914E-1 -2.091149596290099
4.367209991229999E-1 -2.0862001826055145
4.35714942651958E-1 -2.092833159525531
4.4558855277013754E-1 -2.1089513643521607
3.7655265792424686E-1 -2.117875545934718
3.5935545416388326E-1 -2.1241136786211383
3.515810235311452E-1 -2.1316769439847176
3.534859669355954E-1 -2.140793865020221
3.664466702897642E-1 -2.151364851082965
4.0067778194766257E-1 -2.1295839392732567
4.7127779194641467E-1 -2.1803834860065017
4.7404415906969344E-1 -2.1875819228860345
3.834819788333125E-1 -2.1801480841771963
4.1820129874018774E-1 -2.186250699674646
4.3951147180648154E-1 -2.193215124740904
4.490664538589439E-1 -2.2049708921032978
4.4852162282471253E-1 -2.211807376354249
4.450580001593398E-1 -2.2172812477315587
4.4189096582994625E-1 -2.222988476033143
4.39135555409631E-1 -2.228977523960725
4.3682324828606256E-1 -2.2352077293377377
4.3328459320199586E-1 -2.2406735987191224
4.2603262159868693E-1 -2.2428488075351254
4.195663130669932E-1 -2.2435115423233354
4.1422689877907437E-1 -2.2431553509507327
4.3326323883168666E-1 -2.275678132120516
4.5465654670714206E-1 -2.2832214142379423
4.550686146680457E-1 -2.2872957557229343
4.49343044228204E-1 -2.2950838336018617
4.457709024507989E-1 -2.3028945315363614
4.444758432322931E-1 -2.3105379987846595
4.450259638986325E-1 -2.317913691262078
4.4663924357010115E-1 -2.325091978571352
4.4854707878073646E-1 -2.3321705248018803
4.502580351130422E-1 -2.3392463154601053
4.5153588980565773E-1 -2.346380042675153
4.525049854444245E-1 -2.353548203131377
4.5385176527565574E-1 -2.360712392677638
4.56482980795374E-1 -2.367813759094534
4.609688330979521E-1 -2.375239709961883
4.575042106994988E-1 -2.3777138393244277
3.599143362201078E-1 -2.372123913574816
4.562103678325037E-1 -2.39160065771499
4.377528318004601E-1 -2.368479605446342
4.699028485128201E-1 -2.4313787616639657
4.225592902542112E-1 -2.343045424995494
4.188522368769443E-1 -2.407639714081641
4.1975097234899383E-1 -2.4139458738096984
4.4127938206871814E-1 -2.4318812659823177
4.475439528067584E-1 -2.3742185307148365
3.855893327339426E-1 -2.381419896245769
4.6526943431229684E-1 -2.400640465123203
4.556893881442551E-1 -2.4991150566765725
4.7433492970271995E-1 -2.4589436420263837
3.8169743723135896E-1 -2.550035407336418
4.903207137505657E-1 -2.499214350272539
4.8035623767824787E-1 -2.500250127800655
4.8327206551747026E-1 -2.506359787852604
5.081879324251608E-1 -2.4007957675325557
5.084654144966165E-1 -2.43530016787052
4.26101786540129E-1 -2.471792222973553
4.1338886437895905E-1 -2.43122884582118
4.853197697576831E-1 -2.5281322343232135
4.614565789961277E-1 -2.522988509454656
4.942004418015757E-1 -2.534420157742787
4.264388403742446E-1 -2.54814525296693
3.8626147077523354E-1 -2.50139577633433
4.82463715461521E-1 -2.5729711466886456
4.0008902582984507E-1 -2.4754915610988952
4.722492079743819E-1 -2.582414307688779
5.170222551244279E-1 -2.588120566452595
4.7031947855291245E-1 -2.5420438164202777
4.6270650971976646E-1 -2.57415046386996
3.6038491514997784E-1 -2.520550881629738
3.9925849384956114E-1 -2.535085875144751
3.917029411094981E-1 -2.5616462537497835
4.0220163642381657E-1 -2.529643012415386
4.389855853961455E-1 -2.668883850987533
3.9737574143321885E-1 -2.693871738931423
4.803199817123471E-1 -2.6588593156619718
4.912118397971357E-1 -2.5271866040955486
4.195468692660673E-1 -2.5581571708235997
4.7583105021552685E-1 -2.661343782027865
4.616357551539091E-1 -2.6463500818780186
4.129964184031659E-1 -2.7120714185964587
4.175454323445411E-1 -2.627209855341358
5.006337057259496E-1 -2.574427322773056
5.175243600685729E-1 -2.696225203571054
5.177192076953917E-1 -2.7026090864172483
5.178458550947664E-1 -2.7090058404947146
5.179736893174093E-1 -2.7156073210375244
5.180705915184529E-1 -2.7221214828079288
5.181700281747614E-1 -2.7285743197086414
5.182536666872546E-1 -2.735074895745943
5.183183354509352E-1 -2.74177908664967
5.183801247619275E-1 -2.7480174733367986
5.184628786373043E-1 -2.7546475835822353
5.185283189469981E-1 -2.7612636423766177
5.185744033073232E-1 -2.7674233040437124
5.186129318776715E-1 -2.77451956952614
5.186306885868376E-1 -2.780752533489528
5.186713784432664E-1 -2.7872036913128797
5.187365660273804E-1 -2.7939958718495226
5.187741840756297E-1 -2.800621458890962
5.187822136807527E-1 -2.807246885911345
5.188141055383019E-1 -2.813931289074717
5.188302781771554E-1 -2.820564634710499
5.188599974896051E-1 -2.8271848504769492
5.1887191317818E-1 -2.833456156089911
5.189024663144517E-1 -2.8403464613080738
5.189019879705138E-1 -2.8471017401294194
5.189056053835701E-1 -2.8538321716138557
5.189262008842801E-1 -2.860504989521425
5.189375950953183E-1 -2.8670623308120207
5.189298341405502E-1 -2.8739897143141864
5.189219842475916E-1 -2.8806265682521444
5.189139690971099E-1 -2.8873150963664993
5.188938164737802E-1 -2.894232581372526
5.188971600003697E-1 -2.900869806749016
5.188846862708718E-1 -2.9075457367270037
5.188947925100411E-1 -2.914141871085718
5.188300814776897E-1 -2.9211380364166226
5.188428276940436E-1 -2.927898439476676
5.187863070227012E-1 -2.9347910784354605
5.187759237461476E-1 -2.9416079898335044
5.187448232838314E-1 -2.9482952622108938
5.187218872285765E-1 -2.955147669868612
5.186787212660331E-1 -2.962053357719994
5.186559779611757E-1 -2.968718773939938
5.186010685086273E-1 -2.975714062880794
5.185449094765504E-1 -2.9827227270690106
5.185232126494257E-1 -2.9893565168201013
5.184911173480355E-1 -2.9959116653224642
5.184376385055416E-1 -3.0030176201778684
5.183888593199497E-1 -3.009892747371454
5.18313109288619E-1 -3.0168918551496575
5.182559506802882E-1 -3.023600437589565
5.182125237835761E-1 -3.0304763103960966
5.181606748652849E-1 -3.0373618717685837
5.180765068195516E-1 -3.044186106806501
5.179996303821435E-1 -3.0513585732685047
5.179394970934077E-1 -3.058203838954301
5.178822768854177E-1 -3.0648392891240044
5.178016976886379E-1 -3.0717842352642157
5.177315205203383E-1 -3.0788264628444857
5.176335079568506E-1 -3.0858896765380877
5.175921417326397E-1 -3.0926687282721503
5.174897760636032E-1 -3.1000072534600727
5.174297172881417E-1 -3.1064958611604454
5.173311998816436E-1 -3.1134121711567357
5.172407906086105E-1 -3.1205027534320267
5.171757459483121E-1 -3.1274018365334384
5.17112793455908E-1 -3.1342514934446553
5.169864007179382E-1 -3.1412635338904558
5.168889897452419E-1 -3.148288745233807
5.168026359994271E-1 -3.155457738425873
5.167333926580987E-1 -3.1623156519943385
5.166149601052306E-1 -3.1695214679446324
5.165106564690506E-1 -3.176325641836038
5.164064351215527E-1 -3.1832765650318833
5.16314287930951E-1 -3.190334719809486
5.162292734124034E-1 -3.1974712980339546
5.161409576063628E-1 -3.204325602146452
5.160276717923409E-1 -3.2112558675859866
5.159203913463644E-1 -3.218369536779161
5.158009282724088E-1 -3.225328192164509
5.157178680366996E-1 -3.232648004271591
5.156226976584325E-1 -3.239639869583815
5.15509579150183E-1 -3.246871849038408
5.153929842144839E-1 -3.2536771227645427
5.152710046068969E-1 -3.2607446058126617
5.151767805692666E-1 -3.2679948817513034
5.150861109433769E-1 -3.2748514364190995
5.149441325727748E-1 -3.2820243679064833
5.148497139420334E-1 -3.2891907811026635
5.147257203403541E-1 -3.296143537468631
5.146204144304061E-1 -3.303282216825332
5.145054235150281E-1 -3.3104529748187432
5.143779384387237E-1 -3.317661858786291
5.142365894459887E-1 -3.324686775418752
5.141437065138581E-1 -3.3316185965632346
5.140042552997073E-1 -3.339068392359724
5.138940086111707E-1 -3.3459249049105293
5.137416307600267E-1 -3.353118511856197
5.136217437325604E-1 -3.360291766831974
5.134675204291425E-1 -3.36743073097059
5.133243817004594E-1 -3.374492949831618
5.132060184228232E-1 -3.381418063719952
5.130360828477447E-1 -3.3885845649588107
5.128908453815847E-1 -3.3955833388117624
5.126743835729901E-1 -3.4028610799330923
5.125182541686322E-1 -3.4098180767147923
5.122988253760845E-1 -3.416928795939847
5.121396404508978E-1 -3.4239018145371776
5.118755557774166E-1 -3.430974125714563
5.116193015706272E-1 -3.437970345171328
5.113671831178416E-1 -3.444921137231061
5.111483034291542E-1 -3.4518288921819265
5.107966529191252E-1 -3.4587131787294236
5.10569176100363E-1 -3.46558093583643
5.100279126033516E-1 -3.472287689107938
5.097803749376222E-1 -3.4790798561470204
5.093422087142707E-1 -3.485740185874209
5.089953853250015E-1 -3.4924515986972873
5.085836444477578E-1 -3.499078392949551
5.078301445934624E-1 -3.5052637287495485
5.07322392514115E-1 -3.5116939574583124
5.067955833415376E-1 -3.5180618000211137
5.060691724907245E-1 -3.524116600431691
5.05438509511524E-1 -3.5303131096637728
5.048980667034939E-1 -3.5365599287042317
5.042092780914278E-1 -3.5425776935125985
5.031861145834058E-1 -3.547961719394646
5.024221247241847E-1 -3.5537719814309994
5.016625284485692E-1 -3.5595301221359583
5.008721953713686E-1 -3.565222288073093
4.9994550364736046E-1 -3.570579698695462
4.83659986400724E-1 -3.5987939278634706
4.02609397325169E-1 -3.524627092292512
5.008109635897621E-1 -3.5074438431485184
4.4153925318425014E-1 -3.5774005484912816
4.724921921309636E-1 -3.6199674447859103
3.6328630942254847E-1 -3.594922519810884
4.6797475942185346E-1 -3.615051098644569
4.405800084862223E-1 -3.6323730952600255
4.4228275214260626E-1 -3.5570823871609862
4.896795724626955E-1 -3.56485310384395
4.7945195105975247E-1 -3.671039342931705
4.8967798809102847E-1 -3.675940381309458
3.900734021570016E-1 -3.7224931294605765
3.4637724755167953E-1 -3.6728771007149206
4.524173679854888E-1 -3.687783558566042
4.1439923514844346E-1 -3.67458100843437
4.050275111711368E-1 -3.6738562920083377
4.1933151537067126E-1 -3.7097885441938856
4.525673520227893E-1 -3.710888233889916
4.4215127282993616E-1 -3.720635433577096
3.45962450477601E-1 -3.673088235020017
4.1773289110575085E-1 -3.737476603218214
4.259471020082565E-1 -3.6888780486224544
3.9805555758862643E-1 -3.6975815663403866
4.094736680672817E-1 -3.6760366895720105
4.726734140387421E-1 -3.7544265154477587
3.558011374330765E-1 -3.8157567473430625
4.648304712990309E-1 -3.7710186543943047
4.486364963734864E-1 -3.7816683536564017
4.4377762655248215E-1 -3.7909684183439225
3.791440315903314E-1 -3.741475450075445
4.642147117712167E-1 -3.7981807548935853
3.9589689865470956E-1 -3.7578314357115166
4.1786880003331195E-1 -3.7521095274274923
3.834390961955133E-1 -3.802178141056682
3.895728994983314E-1 -3.7770498532360888
4.817816749416683E-1 -3.8353467472823235
4.840272387681041E-1 -3.850519589317081
5.059534516892742E-1 -3.8647904935880946
4.924271732876015E-1 -3.868245223660809
4.4582570988470716E-1 -3.788263770243155
4.115895918254753E-1 -3.89278497497654
4.9333598635194365E-1 -3.842585937884122
4.8159828193857407E-1 -3.89363331971685
4.926017684556816E-1 -3.9011527790628517
4.823213065178238E-1 -3.9091076733317873
4.26799603706129E-1 -3.812686303332356
4.897204928266346E-1 -3.9235475213325444
4.9176864103414597E-1 -3.916846096070765
4.589526055634275E-1 -3.9275121777439
4.706626173469094E-1 -3.890865811205342
4.497680094170623E-1 -3.919359249359448
4.9515766030332775E-1 -3.924981081538439
4.6922603325577894E-1 -3.954765178397506
4.534933374168424E-1 -3.966210143896763
4.414422669646959E-1 -3.9650634357764334
4.496032338026915E-1 -3.9739574283341734
3.828018375539217E-1 -3.9713500875988217
4.744212227110107E-1 -3.9944808943268675
4.6385356742129047E-1 -4.001467876447297
4.6350746065709075E-1 -4.0081509653326695
4.6333404350083146E-1 -4.014826733882985
4.6311896129876406E-1 -4.021522185963845
4.626808475147801E-1 -4.028270347467872
4.619546712186985E-1 -4.035070208888846
4.609652619164283E-1 -4.041927943967365
4.5970111129490704E-1 -4.048824097704209
4.581791429578752E-1 -4.0557362653484255
4.565492165633459E-1 -4.062632322345224
4.549901020846608E-1 -4.069468073059063
4.5365685590705657E-1 -4.076216592107217
4.526688574837906E-1 -4.0828131644040715
4.5230362897618737E-1 -4.089272887121106
4.5267336695205546E-1 -4.09555318364233
4.538727267227873E-1 -4.101698836511973
4.5597212151649485E-1 -4.107691094874323
4.5883078316229825E-1 -4.113647126024196
4.7495739416781363E-1 -4.119609113111439
4.721086303386153E-1 -4.126491176800018
4.5172702208472676E-1 -4.134935146759574
4.271541914009367E-1 -4.127763282565659
4.2985803167893266E-1 -4.137946567721157
4.329924230272756E-1 -4.147789364457936
4.365339932150135E-1 -4.157110714378656
4.403899964340656E-1 -4.165889253564366
4.4455979865813333E-1 -4.1741886145409675
4.4733434402435057E-1 -4.181730316539801
4.483934412876315E-1 -4.188795076303023
4.4961753322525194E-1 -4.195879978654477
4.5102405520555705E-1 -4.202998880936581
4.5258179603326976E-1 -4.2101541429817395
4.542546064917476E-1 -4.217344830224812
4.560740601893676E-1 -4.22457464843142
4.579896854557016E-1 -4.231842642735994
4.599656913231762E-1 -4.239131372220587
4.5902661284259283E-1 -4.245690834450567
4.536687601845376E-1 -4.251013663662709
4.4794166978910466E-1 -4.256059954568945
4.417626031113021E-1 -4.260783781250919
4.312800787478812E-1 -4.267341191922724
4.133874970444814E-1 -4.2763546328690385
3.901492982253886E-1 -4.285117304298741
3.623731815535881E-1 -4.292646205784196
4.819486797341713E-1 -4.304852043068202
4.0057619366746167E-1 -4.288630451777207
4.147936715105459E-1 -4.300920966624097
4.215949601105061E-1 -4.309938075448924
4.126033824404842E-1 -4.326708165133737
4.042076072929809E-1 -4.33297158815108
3.9969832840582165E-1 -4.339023531717752
3.9866868928654775E-1 -4.345041823204599
4.010155343342925E-1 -4.351112066960079
4.062247409183274E-1 -4.357217606711095
4.1409889214761575E-1 -4.363375498291077
4.1930024386004394E-1 -4.3697235708200735
4.612864443642531E-1 -4.37244745735101
4.5572837374554975E-1 -4.3736482575974485
4.53249479778855E-1 -4.37781043332411
4.536040090624549E-1 -4.385408893619834
4.5717694303726397E-1 -4.3963401984197565
4.643195056447555E-1 -4.409067252943655
4.7096909181072216E-1 -4.4200355095938795
4.5459610986004156E-1 -4.429745715208089
4.6312307449385376E-1 -4.437952601948662
4.7593124026300104E-1 -4.443534902701805
4.808078627187713E-1 -4.450051805332262
4.164190271822228E-1 -4.45786358742139
4.428757447349197E-1 -4.468021307776012
4.816694956588264E-1 -4.471573712265897
4.3044894391976707E-1 -4.425410691110354
4.203487615360674E-1 -4.430529998758952
4.804233889963592E-1 -4.491150686666641
4.04948619140624E-1 -4.4706110535991055
4.923252662881868E-1 -4.506168768341771
5.747598150532625E-1 -4.504298507395315
5.893862960633356E-1 -4.5180909707871395
4.938435276548593E-1 -4.532970578010741
4.855843427642526E-1 -4.536644908961968
4.800479900971629E-1 -4.5426234968320784
4.9857919681103174E-1 -4.552113963023024
5.000046005689363E-1 -4.556256587861145
4.283691754865323E-1 -4.601015497317397
4.2062892763282267E-1 -4.593913644565975
4.610135838875846E-1 -4.551266257772621
4.972752746712918E-1 -4.595307493333323
4.797042165016799E-1 -4.605778254925164
4.5856272352113236E-1 -4.609011032090745
4.702957526034046E-1 -4.594665408601334
4.9436637590379895E-1 -4.6060510445360014
4.989556546509772E-1 -4.603791750366187
4.988154018517044E-1 -4.599007757750548
4.9978454088150276E-1 -4.596645181205885
5.01224547037296E-1 -4.601549916966056
4.9995132281985877E-1 -4.611804781826733
4.8860612384216767E-1 -4.620201785780184
4.9474291142089954E-1 -4.665508655201536
4.931469694664614E-1 -4.671439864505161
4.8905653393875814E-1 -4.678203984367169
4.844524594840998E-1 -4.685893988876555
4.8069296936762307E-1 -4.69407164825054
4.9384797647289214E-1 -4.6865502355923425
4.8409427466526794E-1 -4.699654816275279
4.0038518720932903E-1 -4.646514901966121
4.3823647598040877E-1 -4.672373110744387
4.4103353708063564E-1 -4.676817737256187
4.1720986938043136E-1 -4.700932206143676
4.9260530638670585E-1 -4.703409097761975
4.493113064144117E-1 -4.752185725046081
4.87124732076698E-1 -4.708338821214826
5.400423831275902E-1 -4.749246881777438
5.338129405363006E-1 -4.767321986215405
5.308433442981959E-1 -4.779494835196113
5.353306959954475E-1 -4.769436599518815
5.606552225684172E-1 -4.823006224534422
5.293149616820493E-1 -4.826224410558346
4.6814101013914555E-1 -4.79626782801132
4.609636060543545E-1 -4.798639507797144
4.901803857806752E-1 -4.812145953350741
3.944672401098177E-1 -4.748744602209606
4.956354399429935E-1 -4.826530578056499
4.972367912352317E-1 -4.833116577626039
5.039582975165422E-1 -4.8358247132364625
4.2524966689422805E-1 -4.740659678459478
4.9553483303782797E-1 -4.85611518408
4.745232139020711E-1 -4.872635748676623
4.4761442330769413E-1 -4.890427230117409
4.9176538065988334E-1 -4.880433145230437
4.9415253410377913E-1 -4.886527541534113
4.9685977318449576E-1 -4.892569684171477
4.9922980877491696E-1 -4.898700900726592
5.002171717812673E-1 -4.905155779753552
4.936695009040952E-1 -4.913250129267177
4.845269901319E-1 -4.921399576031074
4.7844102340376715E-1 -4.927721387624768
5.011771821884576E-1 -4.9274688224544585
5.012932993247015E-1 -4.934936442693566
5.003351925590903E-1 -4.942439806947703
4.9927753270573366E-1 -4.946934854167151
4.986603780326848E-1 -4.950910537366064
4.986563924501704E-1 -4.954878787997923
4.9908390328421226E-1 -4.959236170389875
4.996288901220226E-1 -4.964404907338936
5.000249038619888E-1 -4.97064408251106
5.001104274156896E-1 -4.977986947217391
4.998511797934314E-1 -4.986316723314096
4.993131656708394E-1 -4.9954881672506835
4.9817048453683455E-1 -5.0043751212866106
4.9554386203338563E-1 -5.012128585918729
4.009862655311386E-1 -5.112286420283142
4.977629448204003E-1 -5.035489934109781
4.9662434221982354E-1 -5.0427780214720235
4.9479860063701786E-1 -5.0501722216780704
4.9272807486178005E-1 -5.057596452091172
4.9072364857944506E-1 -5.0650043743951585
4.8902777424369354E-1 -5.072367793334524
4.9334123227238713E-1 -5.077520468950556
4.9346627626903855E-1 -5.084382426157761
4.0376971868538725E-1 -4.997187207259572
5.074144417669895E-1 -5.090563205584835
4.9747837850078885E-1 -5.102945650769459
3.9061120886527334E-1 -5.051365015224299
4.525688315194484E-1 -5.065893997440789
4.962651718116376E-1 -5.123077334333155
4.9572865404781835E-1 -5.129997813825483
4.9462037574460654E-1 -5.136879764635154
3.880193998633349E-1 -5.133120455475119
4.225594937901601E-1 -5.085755221086249
4.6079049562952845E-1 -5.132745390041134
4.974987966455675E-1 -5.121398168815534
4.306425628887628E-1 -5.162409910051853
5.330884462192191E-1 -5.192093663503851
5.897057419164822E-1 -5.266729931622133
5.594557344800279E-1 -5.267062732951438
5.240349869225247E-1 -5.232739194872395
5.173111684878077E-1 -5.234809506304973
5.201712827251104E-1 -5.225549710200345
5.097341567161938E-1 -5.216110311926565
5.053207569627776E-1 -5.2301838757075325
5.065533699572461E-1 -5.239133164558008
5.080780834798373E-1 -5.2455090866782506
5.145987234562971E-1 -5.251567989173242
5.256289360117512E-1 -5.2553707374609235
5.368056591484351E-1 -5.255558234671021
4.839784496892974E-1 -5.22847656213173
4.7829163336855707E-1 -5.2073739976793885
4.783791683741579E-1 -5.198752249436621
4.7948569297267607E-1 -5.21237345332053
4.7446812905601965E-1 -5.243078974717938
4.631086934134521E-1 -5.274872615368566
4.3908370774379546E-1 -5.313435019002147
4.515101112116957E-1 -5.2965764045737105
4.8353817179660996E-1 -5.288807472287259
4.481708158627725E-1 -5.29713676956052
4.4587671651981836E-1 -5.305630720321038
4.4842197780852977E-1 -5.313625273865394
4.532319658889097E-1 -5.321274752398546
4.533596701560818E-1 -5.3220275702223505
4.8809069748113365E-1 -5.3615839608145395
4.8927607795256817E-1 -5.367342338606575
4.900704253922594E-1 -5.373386203419889
4.905118602417772E-1 -5.379710828978841
4.907442423561427E-1 -5.386225070865551
4.9088306496243184E-1 -5.3928515611399535
4.9098382690022746E-1 -5.399558558217402
4.910453165021836E-1 -5.406349472139486
4.9101405072910453E-1 -5.413257714654776
4.9078422144045736E-1 -5.420352922486767
4.9022789211101336E-1 -5.427712787432345
4.900071429892129E-1 -5.43487958232458
4.832522292202654E-1 -5.447014987904234
4.835921807745774E-1 -5.453702178787226
4.8398693516371477E-1 -5.46036922352287
4.843986065850413E-1 -5.467048714641726
4.8482151448026E-1 -5.473741852380688
4.8522067701471727E-1 -5.480472201048956
4.0398686970751363E-1 -5.440191783282514
4.114489107896413E-1 -5.444191865595481
4.181770657843519E-1 -5.448160748365044
4.2381976214144024E-1 -5.45230876877094
4.282129691820836E-1 -5.456769771460377
4.3117909640759833E-1 -5.461730371663297
4.325799898279261E-1 -5.467463820315106
4.3241283106751116E-1 -5.474153809359919
4.328906137572447E-1 -5.481590488977439
4.371607578902855E-1 -5.4891957171998955
4.8428866653169267E-1 -5.556520236933337
4.848503081003813E-1 -5.563338495889752
4.8413361814499867E-1 -5.5701429623991565
4.8271685144191706E-1 -5.5769535090975735
4.810462603726451E-1 -5.583743191331523
4.793266516472248E-1 -5.590487261252201
4.7747709220866785E-1 -5.597145916427011
4.7568115593322097E-1 -5.603707300554973
4.2924939358626185E-1 -5.6164154271131626
4.301831378914368E-1 -5.623064289422993
4.3131927492866606E-1 -5.6296725763918785
4.3262033041810893E-1 -5.636253246528846
4.340676279470383E-1 -5.642808317995991
4.3570551024118037E-1 -5.6493249057283235
4.3748262250318815E-1 -5.655823671693298
4.394569360441496E-1 -5.66228522486048
4.415889847282358E-1 -5.668718459746383
4.43841478707211E-1 -5.675134892028514
4.4629079190427756E-1 -5.6815189282760015
4.488141991547895E-1 -5.687895905525263
4.515089352895987E-1 -5.694248060442507
4.542665691828165E-1 -5.700596529509447
4.5713845746279913E-1 -5.706936851269356
4.599796416883048E-1 -5.713298928052818
4.6290991556645994E-1 -5.71966440353883
4.6579605619687636E-1 -5.726061569402442
4.686722755278875E-1 -5.732490461769582
4.7132948889792636E-1 -5.73899096399056
4.7396046528391444E-1 -5.745541711623583
4.763499960455244E-1 -5.752185320344841
4.559247231604226E-1 -5.766224242483771
4.570765232496939E-1 -5.772789240087569
4.5829668674837293E-1 -5.779334037845223
4.596070743190408E-1 -5.785846534711845
4.609732370470482E-1 -5.792341522646308
4.6242201835839114E-1 -5.798815473890001
4.6389073562357436E-1 -5.805282938317576
4.65387786087397E-1 -5.8117479658610085
4.6692962503564317E-1 -5.818206608269368
4.684621824029833E-1 -5.82467743940659
4.6998190386595584E-1 -5.831161623689214
4.71473169225601E-1 -5.83766608990696
4.7288639570517693E-1 -5.844209204104815
4.742550440129454E-1 -5.850780234704715
4.755429622051318E-1 -5.857391702652907
4.7675550728547E-1 -5.864046089610128
4.778536715429573E-1 -5.8707495222133375
4.788517361382294E-1 -5.877503551310503
4.797203529787344E-1 -5.884310267696631
4.804841296859571E-1 -5.891162328444082
4.803621438300132E-1 -5.898124245917775
4.783890659769619E-1 -5.905432590122913
4.758707619831716E-1 -5.9130740212864525
4.730323957846868E-1 -5.920998692808594
4.7014430934879303E-1 -5.929106887957131
4.6753915875368274E-1 -5.937256966769245
4.653163679024487E-1 -5.9453959856222625
4.638468555856185E-1 -5.953349934029283
4.7258245382057196E-1 -5.9549461943381345
4.6535201539751014E-1 -5.963942142977186
4.5822986759024E-1 -5.973262087833338
4.525136194686071E-1 -5.9824368799628465
4.482666560452839E-1 -5.991392750569852
4.458396253462004E-1 -5.999948259535143
4.4510616018126203E-1 -6.008069764049268
4.4579280813918537E-1 -6.015781628449364
4.4756373299845054E-1 -6.023131743180902
4.86382474782465E-1 -6.019278005255042
4.229014197659937E-1 -5.994672394776503
4.3113839893250383E-1 -6.00464268157682
4.497878032793833E-1 -6.01005228299261
4.46176589919799E-1 -6.022449398187082
4.410583890274472E-1 -6.035948579922999
4.377653600044922E-1 -6.048788087206649
4.394195956990091E-1 -6.059980899951261
4.4752880622036495E-1 -6.069140015252693
4.3496928157124315E-1 -6.049089667197414
4.440818334181802E-1 -6.05177615272258
4.491302400363447E-1 -6.060637140256525
4.525260618942064E-1 -6.07197714043346
4.5676971476708095E-1 -6.0835881447867335
4.622353527353641E-1 -6.09495646134701
4.796732639256665E-1 -6.113233690058054
4.888816785333156E-1 -6.12695838464002
4.7249230554459637E-1 -6.137630759336592
4.758983909561698E-1 -6.1445742465408495
4.823480024303959E-1 -6.1489725839886376
4.868209348689686E-1 -6.147218089053103
4.9318004908013346E-1 -6.097144478207729
5.083866001785939E-1 -6.174758207020871
5.151759643044661E-1 -6.16487283398536
5.189679857041116E-1 -6.169630467948587
5.129240992941198E-1 -6.182681544706489
5.473150745391875E-1 -6.171467175489907
4.9786430883629024E-1 -6.218599080284824
5.162663872152029E-1 -6.241443655215787
5.114148666537691E-1 -6.234648177089343
4.8789627147190007E-1 -6.2262206538037645
4.7717411679705024E-1 -6.228895759354145
4.9276182486118375E-1 -6.244966954027653
4.8219014184090736E-1 -6.248309429674531
4.789102804322869E-1 -6.2474878447621425
4.8291647029091944E-1 -6.249509880837499
4.8418482718828715E-1 -6.252251485002299
4.8378135796531485E-1 -6.256601495951117
4.8146763942077364E-1 -6.262945929417192
4.753374882659941E-1 -6.271801886413028
4.63554166863711E-1 -6.282333548812145
4.9029890456650715E-1 -6.313919026414005
4.881604110801759E-1 -6.320850885639511
4.843182472799014E-1 -6.327736319197592
4.776633871006233E-1 -6.334069329541106
4.753090545627022E-1 -6.337523559490669
4.775230556490712E-1 -6.338716726528312
4.8345777214066915E-1 -6.339014361103716
4.912260089628919E-1 -6.340285750488092
4.538161160180671E-1 -6.358266985094524
4.5030261455646203E-1 -6.3690902477365485
4.488894049033519E-1 -6.378788164799419
4.493000334293664E-1 -6.38728879426251
4.903213039248193E-1 -6.387720949981185
4.897846413828215E-1 -6.394586844228185
4.890436883564904E-1 -6.401464104594314
4.8807189982296006E-1 -6.408373914087735
4.868925305796703E-1 -6.415337675673412
4.8556231598364863E-1 -6.422367505875715
4.841380781161926E-1 -6.4294692620922875
4.8276366939261356E-1 -6.43662207070326
4.8149530551992503E-1 -6.443807393535945
4.803509772041727E-1 -6.4510169946706375
4.794412849438807E-1 -6.4582132764998486
4.788503869149413E-1 -6.465357466401093
4.337877528610919E-1 -6.529554364272119
4.407587617656314E-1 -6.529958053375033
4.350494024314125E-1 -6.537319444735198
4.3064461631028683E-1 -6.5438860564835215
4.273734319073589E-1 -6.5497628550543405
4.2522043995869E-1 -6.55499072689856
4.242723770645391E-1 -6.559762646126484
4.241784168695601E-1 -6.564207249960755
4.2489525538027545E-1 -6.568361927285501
4.2626021494437155E-1 -6.572442027857318
4.282753981923094E-1 -6.576500794920208
4.3075695878027E-1 -6.580578342118535
4.3367808886038606E-1 -6.584774525458424
4.36944898356923E-1 -6.589096765609969
4.4058262336959064E-1 -6.59352641889129
4.8839233678533445E-1 -6.5672286258711665
4.8492969287473614E-1 -6.57275781573899
4.8128273944243855E-1 -6.578194351923443
4.7771162126386424E-1 -6.583439104024349
4.889902946162451E-1 -6.602539170019576
4.8928810548342755E-1 -6.6092120319714525
4.895364801040802E-1 -6.615874900716334
4.8967046330263364E-1 -6.6226591939283646
4.8973659991806445E-1 -6.629486062566643
4.897645460866325E-1 -6.636296083061178
4.897537328350273E-1 -6.643092375354151
4.89715656196841E-1 -6.649869946315577
4.292077518599274E-1 -6.690278627313206
4.3826531919555256E-1 -6.6914642140995895
4.469899834191464E-1 -6.69301749842532
4.550487009186246E-1 -6.695183762639453
4.6268701772965576E-1 -6.697692039453706
4.7399082163999007E-1 -6.6972376467421615
4.8455294151174627E-1 -6.699554364466943
4.92970849919345E-1 -6.704890182807112
4.976222652012081E-1 -6.712869256983397
4.97255669845415E-1 -6.721169634367014
4.9607943681739586E-1 -6.72831747757889
4.9584300111428586E-1 -6.735192610032008
4.9624032017708036E-1 -6.741905256243491
4.9649894111437176E-1 -6.748576321599091
4.9660075918523894E-1 -6.755225789016668
4.965472940521516E-1 -6.761864013542789
4.9633819437929183E-1 -6.768502701239224
4.959875502888317E-1 -6.7751557242461145
4.954987019446014E-1 -6.781837253853455
4.948840469717748E-1 -6.788546500553088
4.941577441569791E-1 -6.795295212433234
4.933362733127221E-1 -6.802085257683639
4.9240974586030833E-1 -6.808914564996258
4.9143254575830914E-1 -6.8157854265783095
4.903820820074978E-1 -6.822696304346273
4.8929029313430206E-1 -6.829638873782679
4.881433798645456E-1 -6.836611321246108
4.869713737815963E-1 -6.843605004972712
4.857956611679947E-1 -6.850608688114502
4.846269459885455E-1 -6.857608309890666
4.835110206082877E-1 -6.8645875775859615
4.825189605867427E-1 -6.8715184647660665
4.479606267747895E-1 -6.831007343191821
4.679256964809497E-1 -6.851076264160472
4.6753484995912653E-1 -6.868694887907022
4.8748467977027127E-1 -6.899021240090419
4.878723788899381E-1 -6.905744576542405
4.891583057862976E-1 -6.912537801107839
4.906243940879317E-1 -6.919625796631484
4.9077162941216007E-1 -6.926747168553278
4.4418195695067375E-1 -6.984239163115745
4.3418885039741234E-1 -6.998392780515397
4.873606160546399E-1 -6.9467463600194925
