%%MatrixMarket matrix array real general
%
1000 1
1.2654853255380253E-13
3.150579123369959E-12
6.045546743239058E-15
7.461863349958575E-12
9.65676803489904E-11
1.7596559043168706E-9
5.976054135652656E-13
2.810663982265311E-10
6.982786416525454E-10
1.0481100899828989E-10
5.968141245828917E-13
3.446009282680487E-9
2.5644301666012356E-10
7.359723582532779E-12
1.9113096886759612E-10
7.424300268870325E-12
3.577187348921786E-12
6.000594119139269E-11
1.4624744944749732E-9
1.7947268517762714E-8
3.240551478733242E-8
4.5131917483346956E-11
4.665943359322905E-12
1.8816415627642274E-11
2.0059394758104867E-12
1.5245968973569604E-10
1.4843230109220091E-10
1.949237400537237E-9
4.0365162390129194E-9
1.573440936307278E-8
8.28195687787108E-8
3.180159938032753E-9
9.713229845460752E-12
2.6780416361206134E-9
2.0191524373751426E-9
1.7067358639573686E-10
4.228113787003171E-8
1.4225942637793628E-11
1.803830060359092E-8
2.509378958709359E-10
6.507634504908069E-10
1.0545712610184684E-9
9.259414633850142E-9
2.6597578514791254E-8
5.795214002153235E-12
2.0108610499465612E-10
6.787636825762019E-8
1.279480118655263E-7
7.486846480030022E-8
6.864397030849978E-8
6.3557471003075015E-9
3.976245453881542E-8
2.035084479984514E-7
1.1506216383724344E-12
1.1496947337273293E-8
3.137064520293472E-7
1.8588714910323352E-8
1.2354734252247116E-7
1.9605800684166787E-10
1.0172177618776835E-9
2.626469273931206E-7
1.0230725297610549E-7
1.5006155489843163E-7
3.6718802623359113E-7
6.092119627983252E-8
2.785056403416671E-9
2.354358073884171E-8
7.154079342705396E-8
1.0062446567726348E-7
1.4396770937299684E-8
1.166505362909E-8
7.633485073460257E-8
2.4035897526387362E-9
1.1561468951678693E-8
1.218945859962739E-7
6.514266569733512E-10
1.3957567927211E-8
2.693746264552989E-7
1.640219463025639E-7
2.770277373824974E-7
1.0792443041389453E-8
4.487121257796473E-7
3.5812321814100113E-7
5.452502654826484E-7
1.904861284407504E-8
4.719397158832579E-10
2.827300643779244E-8
1.0800525233732283E-7
9.648306082262351E-10
4.71173481650941E-9
4.34992416847919E-9
2.929881232108831E-8
2.966987261831325E-7
2.872299239806768E-7
1.5015332050336458E-7
2.653953233963016E-7
4.034180602485756E-8
9.448400332361603E-8
6.790288682265507E-7
1.3559022150101765E-8
1.4413167717505047E-6
2.6544989548463893E-7
5.79484871428655E-9
1.102192032392443E-9
1.084295595803519E-6
3.642323482240798E-7
4.201402088320386E-10
6.471253852580376E-7
1.8016364035764877E-7
5.3523942878390575E-9
1.2024362023898714E-7
1.4727324978648236E-9
1.7338704830421562E-7
1.3637741479313142E-7
5.6790700367768304E-8
8.601594483919211E-10
7.334689706461922E-8
3.599506183202939E-7
1.6096224366019654E-6
9.439705016288466E-8
3.563063151863567E-7
1.431405013892693E-8
3.2395434345875296E-9
4.078728926000577E-9
5.681175847800707E-8
7.301595180741063E-8
9.030659733627543E-8
9.827523068735184E-8
1.2044764484425328E-7
1.8071269898323042E-8
1.815185539917147E-8
9.294197889314099E-8
1.9217691818615673E-7
1.071237265203418E-6
1.8228755263290671E-9
7.495234188252136E-7
1.6202866894284065E-7
3.4009780863917405E-7
4.01925347333327E-7
6.583598483815332E-7
1.1135096024273653E-6
1.0646740830688943E-8
3.612000165353384E-8
2.2444035463830696E-8
1.4977572592338345E-8
1.8823074933152902E-7
5.49832108283993E-7
2.387950184460562E-9
2.0370684628619555E-8
5.792446658953056E-9
1.5122173339726435E-6
4.781351966439788E-9
1.300266833190108E-8
5.644538523749757E-9
6.498150028123801E-9
1.145345630424944E-8
1.68840373740397E-8
2.1864112333830705E-8
2.8899993325485753E-8
3.855676009713583E-8
5.0898169062445004E-8
6.605240911215462E-8
8.383081975628711E-8
9.981599206075997E-8
1.0057967250123338E-7
3.529426524172791E-8
2.9286871777540456E-8
6.842781915972236E-7
2.6713190873699275E-8
9.749176229101424E-7
6.863491407137719E-7
1.4836168661605147E-7
1.2560909293979744E-6
5.423905379843556E-7
1.7266981421731248E-8
5.322945044051057E-7
9.436118790114622E-7
1.2201203127855725E-9
2.3105631955016817E-8
2.8091434938931598E-8
1.978188436345027E-8
3.7961592707185E-7
2.3388112143753065E-7
1.1723527817339366E-7
4.4838372777891865E-8
3.0247765743344245E-8
3.4330455351584863E-7
3.729034333937848E-8
5.287887747914021E-8
5.315567559349597E-7
7.57825893766982E-7
1.0925040323839926E-8
1.3549818092208375E-7
8.09949692730054E-9
8.908010272860222E-9
1.4358959275809107E-6
5.764486943176407E-7
1.6100270055176458E-6
6.8041880235013E-8
7.343590290926585E-8
2.2321724356527005E-9
3.1692291927956884E-7
1.0474817957999352E-7
9.931091004427698E-8
2.682511471983753E-7
4.858927380889482E-7
2.1837550170163663E-7
1.6759074095440819E-6
2.765563552853018E-8
1.0182621432871648E-7
2.2823073514261175E-7
3.7901673033462487E-6
3.401462678628313E-8
4.891387044952032E-8
4.8165611319541275E-8
6.470470619519929E-8
2.0833818669907472E-7
1.2564798087231042E-7
2.402803179538293E-7
2.5464858700601333E-6
3.8300324883099165E-6
2.280147162342254E-6
6.917743776252132E-7
4.444050527851353E-6
5.589007313737381E-7
3.6993957203823202E-9
6.097577229183925E-6
4.781652187217612E-9
1.068733891050684E-9
1.0567250117464594E-6
1.4503124724674593E-10
3.1094242364157574E-9
1.2481763118577869E-9
1.5529196443980958E-6
1.593868801783781E-7
1.32402141820549E-7
9.070359178897934E-7
2.3816719562557132E-6
6.709029347556771E-8
3.010967278141583E-6
1.1758452302953678E-6
1.0919617591743996E-6
5.910993417375023E-6
3.3298648725933505E-6
1.651697859772667E-7
2.825922527921158E-6
1.9570828603957854E-7
1.299300757266168E-7
6.663053925319186E-8
8.92414475889881E-8
1.1131280555439944E-7
1.1653354639106113E-7
7.756891716311548E-8
1.0353377440404579E-7
7.099890456351194E-8
2.84933781806098E-7
2.7845454155834264E-7
4.28778311848975E-7
5.937816537692308E-7
1.5717692725447526E-6
1.861788276589285E-6
2.2478139899586928E-6
5.010796369771486E-7
1.2671483149578306E-6
4.246602951444591E-6
4.2145426520177125E-6
4.146506698007781E-6
4.043307806760903E-6
3.912152408614394E-6
3.7370560997386325E-6
3.549803160083785E-6
3.3320478273115366E-6
1.8560649327637596E-6
3.936941691855134E-7
6.591973097936985E-8
1.610240655222917E-7
2.20305721048918E-7
1.4400558144134296E-7
4.5677654743207625E-6
1.9220709403889523E-6
1.435798340375315E-7
2.7921817077759304E-7
2.5927332227736856E-8
1.8862037709016367E-6
1.7249612760180978E-7
1.565563842689519E-7
1.4658875034827793E-8
1.6285321497706274E-7
1.075700111888196E-6
5.7141140117633607E-8
2.346255783597442E-6
3.4750030614341E-7
2.5259469446420644E-6
4.4334840973439494E-8
4.658746521921105E-7
2.3194985400991712E-7
5.688450705766166E-7
1.1490783690301107E-6
1.1543997962579766E-6
6.568428935476786E-7
4.302333263498714E-6
5.756107373470199E-6
6.465479134456367E-6
6.2273821871962175E-6
5.001467084643954E-6
3.064851931471613E-6
2.2143667108366456E-8
9.29870908427762E-9
3.6688624268183478E-6
1.5493332756380897E-6
6.970587878114975E-7
3.858226099368997E-7
3.769796733288777E-7
4.691707064704615E-7
5.614787659205186E-7
6.477285121632222E-7
7.238541851640645E-7
8.289057360937016E-7
1.1428995124810618E-6
1.5031912264713497E-6
1.8949574707349762E-6
1.0604662402367684E-6
2.4427522871646013E-7
2.2330609513083253E-7
3.307568740774149E-7
4.1577959830692345E-7
4.549656231936565E-7
4.4789382823510886E-7
4.123822504104597E-7
3.6871941929990365E-7
3.298520173247134E-7
3.0196781349851685E-7
2.803328951930872E-7
2.562447798812879E-7
2.1425551179377266E-7
1.4945546658333172E-7
7.466796855801436E-6
2.010449254234145E-8
1.7228682255087876E-7
1.0221423210152665E-7
1.6398885905382467E-7
1.7212788414981186E-6
1.4067231443447353E-6
1.4380159767407692E-6
1.5482847891216973E-6
4.1223411586759136E-6
1.1418914908918005E-8
1.2071727511077375E-6
1.3562954438124576E-7
6.542272477702357E-7
5.7167932767196165E-8
1.3483605427280092E-8
9.973350255049418E-8
2.0900914517285948E-8
1.8079064767225033E-8
8.415685357443768E-8
2.1808965344101766E-6
1.841214125138991E-6
4.996071130052387E-6
8.615484988465955E-8
6.530341894598861E-6
1.9896999700339917E-7
6.593072477086035E-7
3.700907868748998E-7
4.9020069433226896E-8
7.186370289802776E-6
4.148976053852646E-8
2.483164959239514E-8
8.616922599611373E-10
1.8347583137560587E-7
4.922917252629013E-6
5.51132705525531E-6
5.445848016007553E-6
1.938437638957399E-6
5.535672583670812E-6
1.4235488905336715E-6
8.210177879548552E-6
3.88137584313675E-6
4.452031040820485E-6
2.368401156084847E-6
1.0517486274087636E-7
3.4257239202749334E-8
4.112488306868875E-6
2.376669335535036E-8
4.3710936275864875E-7
4.3998796492444073E-7
4.4343723349344553E-7
4.4636739396855365E-7
4.4928300452693396E-7
4.528561402233203E-7
4.550514294436555E-7
4.576130261348003E-7
4.5999001379790665E-7
4.6360149433229E-7
4.651150842948946E-7
4.6807488849767355E-7
4.7003317102083775E-7
4.715894478292311E-7
4.7381103872235143E-7
4.7328647775432366E-7
4.7641420193647153E-7
4.772779419573878E-7
4.786169656496137E-7
4.799909117681202E-7
4.798610963629559E-7
4.809891700595596E-7
4.83211438422357E-7
4.834218547499733E-7
4.845330234626047E-7
4.836689384685709E-7
4.821643989694504E-7
4.834182291693078E-7
4.837032585147943E-7
4.870292191914607E-7
4.847634792638874E-7
4.84304095293767E-7
4.819651541442152E-7
4.830370748557369E-7
4.834128791720579E-7
4.809264200549229E-7
4.814815102629711E-7
4.798542838366895E-7
4.771583613917988E-7
4.773048208368023E-7
4.749256586652546E-7
4.733146087681359E-7
4.712799187779458E-7
4.7051994324886846E-7
4.7012899378087246E-7
4.6534812250145143E-7
4.6559586579757974E-7
4.626476331790703E-7
4.5871894662791427E-7
4.57459845150778E-7
4.56940752629693E-7
4.538893543990416E-7
4.499986852530546E-7
4.493365090130556E-7
4.4550593960447983E-7
4.455010305528304E-7
4.4083486191288406E-7
4.371904082245355E-7
4.3377424600795866E-7
4.3089307793017744E-7
4.274915665505992E-7
4.2548149147465384E-7
4.235053651516648E-7
4.1801662640402966E-7
4.15404476273501E-7
4.1128492448237736E-7
4.0754070140642426E-7
4.047203750770542E-7
4.0128448126739624E-7
3.98941707390236E-7
3.9645346511522994E-7
3.877598157719201E-7
3.8491603299976235E-7
3.8387510243287146E-7
3.7946720304678E-7
3.7626539706337823E-7
3.7370704719797633E-7
3.687541656477094E-7
3.633914213486759E-7
3.5913570852914235E-7
3.5558809383674524E-7
3.5279630777115286E-7
3.486209895321037E-7
3.431716618842634E-7
3.403441280428793E-7
3.36069061087454E-7
3.321341541565255E-7
3.274942680273022E-7
3.227761242193831E-7
3.1884143056781697E-7
3.157559021404761E-7
3.108218499654613E-7
3.0651327219652797E-7
3.030038698548687E-7
2.9847741836298645E-7
2.9576696842713015E-7
2.9048357551390107E-7
2.868351047636322E-7
2.834013635992924E-7
2.7830854076088843E-7
2.74740314061988E-7
2.702423420033543E-7
2.663020506593744E-7
2.62342823583859E-7
2.572372970438559E-7
2.542837754394978E-7
2.5018978554520065E-7
2.4384131081000726E-7
2.4008536077061986E-7
2.3327186289817484E-7
2.297478915538116E-7
2.2474292159397454E-7
2.1977010548067328E-7
2.1332174654072893E-7
2.0566721534366178E-7
2.0237823835578306E-7
1.957056779058876E-7
1.9023504551306846E-7
1.8301599521665524E-7
1.7719176077275572E-7
1.7118568118421208E-7
1.6601285524364852E-7
1.601709240146517E-7
1.5675854624127236E-7
1.5353254484531282E-7
1.518104504119049E-7
1.5181494277246542E-7
2.6545917024201323E-6
9.6547234747213E-9
1.1734721573295813E-7
5.203027488771113E-9
5.7388051035725735E-6
3.02478012419684E-7
3.901092134134769E-6
3.29143458954794E-7
4.436271470768441E-6
6.191822389626878E-8
4.376987406058013E-6
2.82038267730097E-6
9.180764806236754E-7
1.1269904106499895E-6
1.2789217419805755E-7
2.8847328559717983E-6
1.661615374867596E-6
3.4606730495532435E-7
6.217483586663191E-7
6.722453419833741E-7
2.3039122594072939E-7
7.937071167502639E-6
3.646853644008127E-6
4.496552909064296E-6
4.06139721460834E-6
7.354664079549947E-7
3.6180497095252137E-9
1.9243277982861487E-6
6.061292562807739E-7
5.650165475014101E-7
1.7348085619524715E-7
1.95720656086399E-8
2.0400436653736553E-6
3.3763863178990736E-6
4.562136402119757E-6
3.0121001534866437E-6
5.222658276739018E-7
5.085558999640367E-8
3.208725952322033E-6
2.2011983705162463E-8
3.0459698983137647E-6
1.4256444566540143E-6
8.101947131174175E-7
4.8296649119526457E-8
1.8750442068136807E-8
1.6607829925936846E-8
3.867667041791799E-6
2.16469260748216E-8
1.3578800370059967E-8
1.3299015753235218E-7
9.413009245156319E-8
3.2215866533403956E-8
2.6354032446633E-7
4.923966174793517E-7
4.852794299597897E-6
8.498748616152893E-7
8.231714198676012E-7
1.055796381071346E-6
1.8190601569265793E-8
5.284951670775902E-8
1.8588177252416912E-7
1.9605150181345344E-7
2.0156520080030243E-7
2.0457498991158864E-7
2.1078101530237934E-7
2.2077309326078893E-7
2.370221303390669E-7
2.579801690635108E-7
2.8544845452273586E-7
3.1776830711942325E-7
3.5156162461584787E-7
3.8577846978279684E-7
4.129677682329511E-7
4.2959761712986394E-7
4.304414311600708E-7
4.1255386160915846E-7
3.7613323629295604E-7
3.239976601036499E-7
2.628751505580786E-7
6.384077431273179E-8
1.7133860773975869E-7
7.749874199927129E-7
1.3938993174419761E-6
1.2415806531693864E-6
1.0890373512721972E-6
9.380383614839725E-7
7.905688187591616E-7
6.541699357939057E-7
5.923105464239037E-7
5.612818486888464E-7
5.268212277583187E-7
4.884053964062081E-7
4.4767641317151555E-7
4.0505334420548416E-7
3.6194619299701595E-7
3.1908567532444905E-7
2.775100938146551E-7
3.201091849469523E-7
4.522933284871882E-7
6.204154051424547E-7
8.337030642925062E-7
1.307306870415688E-6
2.2386243239492193E-6
3.7930568954131134E-6
6.217602733815344E-6
1.4146721507319579E-8
3.0516472542625517E-6
2.1346434067923324E-6
1.7575433390480025E-6
2.26971095363323E-6
2.79163715036887E-6
3.1110474006209628E-6
3.191219123232109E-6
3.047631423028216E-6
2.713867749043525E-6
2.2487882515737643E-6
1.723874044413662E-6
3.205928936343958E-7
5.275750021446728E-7
6.57070913787472E-7
6.582426717514489E-7
5.272907171487391E-7
3.130027035911163E-7
1.4307243173517293E-7
4.717986533861305E-7
3.0644391767365304E-7
9.780305721802174E-8
8.908847997686383E-6
3.927733719295161E-8
1.3347721737970894E-6
1.0048113415846684E-7
2.381482442648832E-6
3.5349337608609475E-6
5.164449307593883E-8
8.280489840425262E-9
1.921655446088858E-7
2.1648634565211893E-6
4.354269483453957E-6
1.1458706041643967E-8
3.120415882110566E-6
6.142553368983987E-9
1.5740092597504148E-7
4.7242985092105324E-8
8.749037083718536E-8
2.446076598194533E-6
1.1333266431350636E-6
8.050671407418602E-8
1.0801898241265486E-7
2.539671876753526E-7
3.0977894828788136E-7
1.8852451959981376E-7
8.190930606899453E-8
2.3752580732899942E-7
4.974387093007621E-7
7.299664524822968E-7
7.385176361487972E-7
6.286947074443035E-7
1.9495690533656874E-8
2.8617881885260064E-8
1.5502584602808788E-8
5.946033103338436E-9
2.6730703785025938E-8
3.3666391198427912E-6
4.834817333740207E-6
4.3985893345447766E-8
1.1760834958773271E-8
1.4150623873355481E-6
1.8447492345884143E-6
1.7440412849205393E-6
2.0547612963884895E-6
5.139310004357951E-7
7.464230903828994E-7
7.359266009642097E-7
1.4535824231002483E-6
9.999798301688751E-7
8.478792437997975E-7
8.326954061927281E-7
2.292928223646632E-6
5.937663807038392E-7
3.8169748968916346E-8
8.105197069625261E-7
3.2395866624463656E-6
2.113208121917602E-9
2.1188537204746584E-8
2.9864594164678524E-8
3.8362771482634265E-8
1.5540579923487418E-7
9.634254433337993E-9
2.7122282437845955E-8
1.0710167205686866E-7
8.213764699803148E-7
2.184510313498759E-8
2.8530922036253607E-8
4.209657598270661E-8
5.900781339568102E-8
7.06929020327051E-8
4.9898645116744326E-8
1.1939151041362528E-8
2.393119355560773E-8
8.997440862987403E-8
8.952100770203988E-8
8.69279948009177E-8
7.527059993111718E-8
7.208385344548554E-8
7.910452643209588E-8
9.748168945429943E-8
1.237186988438007E-7
1.4762792003046304E-7
1.622979631724081E-7
1.6383737576927E-7
1.5108499798182789E-7
4.4889493971747154E-8
4.6905697950929E-8
3.892003269313605E-8
2.7526015407579793E-8
1.8145607471865948E-8
1.2538806037920356E-8
1.083496195304916E-8
1.3945284767143878E-8
1.9414160707932762E-8
7.89251706234899E-6
2.2098205933325105E-7
3.9946699977390286E-8
6.8781137861824595E-6
2.3143195300918407E-6
1.271551443713865E-6
2.7821140147715664E-8
2.220080302681754E-8
1.5760365498892775E-8
4.4189576592960924E-6
1.6072740956211813E-6
1.6256276588234942E-6
4.844680189573192E-7
5.074644926831729E-7
4.75523827474016E-6
8.439753511921565E-6
3.591014410925056E-6
6.672587061811739E-7
8.208862295378032E-7
4.986027501273427E-7
1.887827791375305E-7
1.6955172839786456E-7
1.8566946593114211E-7
2.253964277564477E-7
3.944656886968492E-7
7.747721991707756E-7
1.3207141854555843E-6
7.659682706808555E-7
2.3008212416896647E-6
3.6890928469783744E-6
3.3993048839161676E-6
1.9168627237730122E-6
8.832204579103786E-7
1.0469206790838997E-6
1.2338993427821287E-6
6.802161778026268E-7
1.2958657047425504E-6
1.3923420609138934E-6
1.306024525080379E-6
1.12024110207228E-6
1.1975551779911079E-6
1.2369677692147496E-6
5.6013926648767625E-9
1.0010486682326078E-8
1.4595594394831137E-8
1.8352090542697305E-8
2.106500391072299E-8
2.3060518698549232E-8
2.4398984513801213E-8
2.4886937279488195E-8
2.4083855691251937E-8
2.135917939115689E-8
1.670250308168419E-8
1.5584499754785897E-8
1.5247136173396983E-8
1.3600539669917603E-8
1.1892486189026732E-8
1.0234710330227976E-8
8.764606362576304E-9
5.66677919068645E-6
5.09250519636758E-6
4.636732263337505E-6
4.318142839740675E-6
4.109563265096814E-6
3.999500397001755E-6
3.9669069837344975E-6
3.984218087553456E-6
4.032163392981441E-6
4.063862089994929E-6
3.7592947707207065E-6
1.188832706934381E-8
9.508200493170301E-9
1.1870507261967239E-8
1.981045014459777E-8
3.145414251986284E-8
4.801592267700051E-8
6.7730288211713E-8
9.35021860444124E-8
1.9564873619665248E-6
1.8972771334239556E-6
1.828361520131553E-6
1.7486564395373958E-6
1.6588967913305879E-6
1.563365438192221E-6
1.4590421428209245E-6
1.3490687010124304E-6
1.2376390634116916E-6
1.1179340564814592E-6
9.986241664880967E-7
8.795619361402568E-7
7.666106379508757E-7
6.54702347429859E-7
5.489825647046764E-7
4.528639027709271E-7
3.6658429071901195E-7
2.885854996438023E-7
2.253025305337261E-7
1.7213194203889898E-7
1.2991921495769425E-7
9.812191913716116E-8
6.045865900141996E-7
5.611868050826443E-7
5.162703700309882E-7
4.704680744800665E-7
4.252416083166382E-7
3.8009494002620406E-7
3.372365635414964E-7
2.965428378106206E-7
2.5806048077219114E-7
2.2357844097768566E-7
1.921504766836517E-7
1.6496855635832583E-7
1.4037803932695813E-7
1.1988405367767514E-7
1.025744949527614E-7
8.830627508070219E-8
9.60422236804983E-8
1.356275874418086E-7
1.8970570623530725E-7
2.5843811748064633E-7
3.293459422015002E-7
3.925983514886295E-7
4.356744345099106E-7
2.299068280440939E-7
4.3492324237081037E-7
6.893659348022181E-7
9.496266371591754E-7
1.1503871275865547E-6
1.2751556329298974E-6
1.3126973689487446E-6
1.2732965752386356E-6
1.1818274048829244E-6
4.01489888185134E-6
3.0736972796710744E-6
1.8347419060834494E-6
1.7413351386958773E-6
1.7737477375946996E-6
1.9130342448613955E-6
1.922899057550778E-6
1.5988924798833762E-6
3.2355293862700386E-6
2.746310555294558E-6
2.3024377821394066E-6
1.8870298110571846E-6
1.4750756094896897E-6
1.0760109578772798E-6
2.538437100260282E-7
3.087724251791284E-8
1.496974064562886E-8
1.7980231834519822E-7
7.555506766878389E-8
6.703941929817614E-8
9.585620818228146E-8
1.3084692811234003E-7
6.205157676906964E-7
9.051565389392324E-7
9.012286746935273E-7
1.1977382589903518E-7
1.7159044897466178E-8
7.125659246014622E-7
1.1397772650840423E-6
1.0825019458795431E-7
5.683135720096197E-8
3.3102619756677166E-9
9.32536758225121E-9
9.226832980026089E-8
1.6418979091069305E-7
1.95012403638114E-7
2.658108498426717E-7
3.264842289342919E-7
3.947137394279691E-7
6.375826003415593E-7
1.271079596064386E-6
8.168245920135148E-8
9.577425051441981E-8
1.6999939064517353E-7
1.9095519177487393E-7
1.243658341791736E-7
5.738706960192323E-8
9.140399437680893E-8
2.165740442370869E-7
9.719944874427037E-7
1.1129316323073632E-6
1.155482873362155E-6
1.6278595334979011E-9
1.7881060825732864E-9
2.890850939158055E-9
5.726651225464216E-9
1.1070659505644524E-8
1.9733307298223635E-8
3.1668651989219016E-8
4.642233260566202E-8
6.246086204211061E-8
7.853275172191822E-8
9.175861759612308E-8
1.0067569310118091E-7
5.483582219077327E-6
4.5066758982715156E-6
5.082366672465519E-6
5.474931168216707E-6
5.718777588184775E-6
2.444145238264348E-9
2.2883759453236703E-9
1.98465416158985E-9
1.6325707631823275E-9
1.298974414054274E-9
4.512081873310435E-6
4.091657691679142E-6
3.66384352876412E-6
3.2403358095829093E-6
2.8308059064740573E-6
3.4052984074332795E-8
4.891680142082125E-8
8.632125106090848E-8
1.5177978967888677E-7
2.431397758138193E-7
3.6819557959698357E-9
2.923876378543329E-9
2.2673056212723767E-9
1.9958528850088597E-9
1.7745011419382779E-9
1.5097213474024656E-9
1.2175458866699494E-9
9.265531696887006E-10
3.1339136141372297E-6
2.189701426762375E-6
1.463100128566394E-6
9.173967570386932E-7
5.381437750772156E-7
1.432201991461142E-7
6.462063897186839E-9
2.3579946918428024E-8
6.52674602410696E-8
5.618538275744794E-8
4.400155059182137E-8
4.972836222131557E-8
5.397746945329147E-8
5.652715307911689E-8
5.700844994977512E-8
5.556889718768941E-8
5.22031450938363E-8
4.724152433642991E-8
4.100610574132948E-8
3.387509179190443E-8
2.652997522349449E-8
1.931008178112216E-8
1.2772724386160186E-8
7.3153815266363974E-9
3.3790803007431266E-9
1.2322607232104914E-9
1.1694462632652006E-9
3.346183344619055E-9
7.764324558094656E-9
1.4187489464920642E-8
2.1860154909271527E-8
1.1026376258748008E-8
2.4536075429455905E-6
1.0202567439306763E-6
3.5108958922008406E-9
4.3256899500992995E-9
2.46318670718614E-9
1.343956258093756E-9
3.705774332018993E-9
2.586119730223918E-9
4.575730736038668E-6
8.631144293102693E-8
1.2993210675785173E-9
5.10736280026315E-6
3.3560490523862286E-7
