%%MatrixMarket matrix array real general
%
1000 1
2.007542665421854E-11
5.149124672035811E-11
6.044399244300452E-10
4.297095938859045E-10
5.253766194442633E-12
1.711591744269437E-10
1.3566797470232402E-10
5.346341114674319E-9
7.383125770289205E-13
6.521998450322692E-12
2.4250209745758283E-11
8.743663290496566E-9
8.729724705924797E-12
3.396074251572501E-11
7.427580159721774E-10
4.5326555598563286E-11
5.693657135907892E-12
1.106159280690405E-10
6.122177552384062E-10
6.444189828684421E-9
4.730290030827685E-8
1.468798262331889E-9
4.4407679821289727E-10
1.0839284079448466E-10
4.2210188333453506E-10
2.0479746408571666E-9
5.674630959008298E-10
1.9896788780728438E-9
3.8808341162185685E-8
1.4680086912964161E-8
1.7388864916796396E-10
2.6267247765756657E-8
3.412171382933019E-8
4.784597891135142E-9
7.214196827355459E-9
1.6762633173500923E-8
1.9540508233819416E-11
3.3156394458286973E-8
4.328611700509376E-11
1.0527184577004076E-7
2.3842250598941842E-9
1.230538844309216E-7
8.630599155260697E-9
1.5599328239360388E-7
3.4219218478266134E-10
1.2859315154568398E-8
1.6968770367385834E-8
8.789224501485225E-9
1.4637343724781656E-8
1.3826860348047521E-8
2.0888442522459877E-7
6.519181078392764E-9
1.933606240365667E-10
2.658835782259984E-7
7.81206382046354E-8
2.1507027762385012E-7
1.0052543205384462E-11
1.2375996239471788E-10
7.293207387654334E-9
2.7985904051503278E-8
5.5526410955478565E-11
3.589843764384198E-11
5.6396460896426964E-8
4.980732111617911E-8
2.8876678946515787E-8
1.7831185204509837E-7
5.071389840762386E-7
5.552586549722379E-7
3.2932858255105657E-10
1.9216927122792975E-7
2.0715819265628426E-9
4.290308500003543E-11
5.164868698319124E-9
3.8481776083416343E-10
4.586709889856716E-7
6.012797300647801E-7
1.9954842833944011E-7
3.267809372341779E-8
1.3676659589687912E-9
4.4994391290565846E-8
2.1844394267778908E-8
8.579840321835364E-8
2.0615568706149906E-10
2.6065798571033348E-8
9.162337988178994E-10
3.9575395331926065E-10
2.3537992881495252E-9
9.504309278857981E-10
5.473753214221363E-7
5.848995048164812E-7
4.4145039774866276E-7
1.5611336409337881E-9
1.1873697497828286E-8
8.807228365177267E-9
2.4889044934365958E-9
1.0567769904238518E-6
1.0048640615533252E-6
5.251217123584985E-7
1.3483183211781353E-8
6.348670338584712E-9
9.78146486939141E-10
5.254738798449212E-10
1.9240933595616304E-10
4.1393323222012914E-10
8.420732511458641E-10
8.644491671717223E-9
1.542002282849432E-6
3.180446375717278E-9
9.92175620454672E-8
3.8246714949331095E-8
5.0968640194019675E-8
9.288750280175218E-8
1.0324869324210012E-7
2.1580029857723758E-7
8.014768539470389E-8
1.0321617956506402E-8
9.438652940322652E-9
1.8987830166797973E-9
1.6333818178556387E-9
6.354381243030124E-7
2.934788209505769E-8
5.097895578604461E-8
7.135003441814298E-8
7.928088456408835E-8
1.4775557340573643E-7
2.617754732183839E-7
2.86714182683873E-8
1.79548218118804E-6
7.127851162775219E-7
1.169345987225958E-6
4.882115346983518E-8
1.374432858530856E-8
7.095331518883074E-7
1.176849461496338E-6
1.1389341569669157E-6
8.063656064809596E-9
1.1340172602587963E-8
4.202606183881857E-8
9.482573029487585E-9
3.1828934644544955E-8
1.2915473722425806E-6
5.2801307478952185E-9
3.825513776774601E-10
1.1955974156904293E-8
1.518213197231081E-8
6.054283212465057E-8
4.476923445272144E-9
1.7624362397539725E-7
3.9238459035359777E-7
2.6110234547201447E-7
5.65150668456409E-8
1.661568956441534E-8
5.093916111286801E-9
7.414001977374921E-7
2.1100230271510996E-7
4.185722463002393E-7
2.1542843410915995E-6
2.2311047343018107E-8
7.31452789834804E-10
5.098956760551942E-8
1.1477256525022223E-6
4.780088194737487E-7
7.036587554670757E-7
2.5402970154718515E-6
3.8877600465993817E-7
2.7641573874074332E-8
6.265512888416051E-7
8.673266304368695E-7
2.3427442102699678E-8
1.0808773836568769E-7
5.4876246131519355E-9
8.355040717901605E-7
5.822793552505969E-7
3.6176806238155854E-7
1.9835603793000783E-7
1.1990079354987317E-7
1.3919144082631197E-6
8.019004707471413E-9
1.6496403531412544E-7
3.601438018315088E-6
1.044697193429918E-8
1.0613653754286059E-8
2.3423865729035968E-7
9.020983580533183E-10
1.8864276434915407E-7
7.924206957367906E-8
7.679014060042107E-7
8.326979023778554E-7
3.525381133547097E-6
3.524749738808399E-7
6.242142112103305E-9
2.7565537740437232E-6
1.758934190880173E-6
1.0029213153188025E-6
1.1102315418092052E-6
1.4339754122909545E-6
2.8290486490736166E-6
9.447393894613529E-9
3.8312001698178854E-8
1.1945351539479636E-7
3.0739813172003424E-7
6.618660839350738E-7
2.344453663491725E-6
8.925635589677835E-8
1.9457952599516986E-7
3.4084187226770735E-7
4.920855472047047E-7
6.048523142675425E-7
7.057524413856954E-7
1.4599774092083795E-6
2.202406615807502E-6
2.7538157427019764E-6
8.492786718820627E-9
7.521978413838731E-7
3.261014772788903E-6
8.601705072019549E-6
5.488552754308249E-8
6.998712879601893E-7
5.903777729424035E-7
4.4966825554949934E-7
4.964391277457241E-6
7.501420798910154E-8
9.783110588612687E-7
2.927233602759695E-7
1.5886506825596525E-8
1.5428082113365808E-8
2.587178836988237E-7
4.7083393589903375E-7
1.3727125053500384E-7
1.4587725160170601E-8
2.9239802656259196E-8
3.374117242095674E-8
7.438828416675055E-8
1.4789723045435021E-6
4.911699550179562E-9
1.737007960828096E-7
1.1022052343760494E-8
4.584770781823481E-6
2.4298301516559367E-8
9.378723464126299E-9
3.1127546389861946E-6
8.11938046617033E-7
2.2752368567004053E-6
3.8429583279014705E-7
2.651028139113335E-7
2.116771537203715E-7
6.365163607669136E-7
2.0733229756828993E-7
1.4851547745953852E-7
1.4897942781596038E-7
1.4854056273673328E-7
1.4710937984819685E-7
1.4465010000763717E-7
1.410587941892073E-7
1.3633758715930545E-7
1.3041886313841744E-7
1.2339753553517512E-7
1.1522501059171759E-7
1.0599007750743205E-7
9.58215741110095E-8
8.48670878908171E-8
7.351867886305723E-8
6.195139472500194E-8
6.433137609112984E-7
2.490840035606697E-7
1.3856098989962184E-6
1.4046049543747232E-6
9.311855250742124E-7
2.917736857913993E-6
1.2487559851945386E-6
1.0505957821701235E-7
2.657956523856141E-9
3.132585656215142E-7
3.526692828736066E-6
1.615667408490633E-8
3.052497187529981E-6
2.0808009122181927E-6
1.3019195648166384E-6
5.010138956132528E-7
8.143869662025549E-7
8.187937878066372E-7
7.292887340934963E-7
9.517012318524515E-8
1.2287268831155772E-7
1.2031881639036763E-7
3.790158572625743E-6
8.382356027448872E-8
6.899091516059992E-6
2.4562643131339287E-6
9.023361195689275E-7
9.878191732019488E-7
1.2421735516184662E-6
1.478299228644936E-6
1.7002301528229988E-6
2.3318292265893564E-6
3.2380601555300105E-6
1.178687114932368E-6
1.396612723106981E-6
1.3104297333028324E-6
1.049903159584878E-6
4.2677153836728985E-6
3.5470203875777735E-6
2.518200773006834E-6
6.405215866190924E-7
6.087559388864471E-7
2.799936601930843E-7
6.91235414385789E-7
1.3620063235697923E-6
3.3156689984948712E-6
1.0304751527683717E-6
5.140822757428369E-7
2.252413718121859E-6
3.942633884627294E-6
1.0069830534714978E-5
1.0613211755257489E-6
6.230587036272082E-8
1.672004069421757E-5
7.929199256280578E-7
1.5785031658753092E-6
3.5461503683298105E-6
2.624820677901173E-7
3.7094014982052163E-7
2.234729269631475E-6
1.7360289997599993E-6
5.95345554180579E-6
3.3676583054743044E-6
3.3297034519454857E-6
3.875572964229839E-6
4.1268798614443034E-6
4.037294559627241E-6
4.2749038928921346E-6
4.15141968917507E-6
2.2052428905023473E-7
4.106530796349803E-6
5.851827600278424E-6
8.62096718519498E-6
1.741619821558942E-7
1.0605891308086444E-6
2.969619116706034E-6
4.30268348207248E-6
3.1432146429254294E-6
3.677534095820019E-6
4.168033934794595E-6
4.6531211357875285E-6
6.301431986035952E-6
1.0330267348888027E-5
1.0440313506299929E-5
9.39485408751802E-6
8.39174238930618E-6
7.889313760406957E-6
7.421809572191778E-6
8.194442876212818E-6
8.950552334418681E-6
9.552845095113971E-6
9.956123930012151E-6
1.0148443313018807E-5
1.0112570336890455E-5
9.859491922943516E-6
9.848772786626376E-6
1.3758587721481995E-5
1.1475808623503994E-7
1.7589095795663223E-7
2.569816192292399E-7
3.611416364713362E-7
4.889250615493473E-7
8.475378532619559E-6
6.358447220758428E-6
1.111420625333188E-5
1.2470739412038536E-5
1.0987439115584804E-5
1.019764236274924E-5
9.620571175174492E-6
9.126946901073373E-6
9.005969150430128E-6
9.555489996491908E-6
1.000591629386863E-5
1.0367259982844285E-5
1.0633041599888185E-5
1.0809817681777212E-5
1.0899942932296241E-5
1.0901876008545118E-5
1.0823884629339238E-5
1.0678307174063009E-5
1.0457163887310906E-5
1.018968451249838E-5
1.09967469470205E-5
1.3063591371715357E-5
1.5282680584647918E-5
1.3380323571296402E-7
1.6700881694076567E-7
2.0527739072598294E-7
2.479731643724722E-7
3.0179685998570066E-7
3.6299795785713197E-7
4.3303979480644997E-7
5.097528557215352E-7
5.958787481140463E-7
6.871178470551806E-7
7.884603127534817E-7
8.971780992333677E-7
1.012874907947102E-6
1.1351915444089403E-6
1.2659764623893622E-6
1.4078840026855418E-6
1.5549252997170478E-6
1.7112583699401559E-6
1.8736406411912131E-6
2.0443720219465427E-6
2.2239324637080362E-6
2.1980561560074174E-6
1.999683674387013E-6
1.8218563116309835E-6
1.6555972247451188E-6
1.48801536493634E-6
1.3554642443658093E-6
1.2129475106501686E-6
1.1596818127782502E-6
1.2106907859658844E-6
1.255913230511463E-6
1.2980765831141281E-6
1.3341159832170434E-6
1.6083518678158076E-6
1.6614703438947012E-6
1.7146561551677711E-6
1.7599780624162925E-6
1.8066120936155282E-6
1.8472691469581533E-6
1.8869580376673985E-6
1.9258372823771852E-6
1.961570969960199E-6
1.9936612445473913E-6
2.025029574568145E-6
2.051044369521198E-6
2.0778443799024653E-6
2.099199690422016E-6
2.1197649465811867E-6
2.137162081200305E-6
2.1531386335631232E-6
2.1666256251213627E-6
2.1769699982688892E-6
2.185715943673853E-6
2.1910916146782527E-6
2.1956782282402408E-6
2.1978174286510868E-6
2.2000839066495787E-6
2.198631297806865E-6
2.194020457932196E-6
2.1902328770896393E-6
2.1833571428601153E-6
2.1735271079014427E-6
2.1623799450098453E-6
2.1477715063723427E-6
2.1342050618970726E-6
2.1174618919698557E-6
2.098109361842247E-6
2.080029270928055E-6
2.0555456906939186E-6
2.0339199936105482E-6
2.008072538508083E-6
1.9815358762225534E-6
1.9530579480345677E-6
1.9245538422290337E-6
1.891579441625174E-6
1.8594036446281592E-6
1.8265508222380435E-6
1.789335475129707E-6
1.7506033202608141E-6
1.7128761058493464E-6
1.6736204371930793E-6
1.631848522995311E-6
1.5881569371975131E-6
1.5444187420240883E-6
1.500746349540038E-6
1.4542338931690572E-6
1.169708095310226E-6
1.1347793678457454E-6
1.0977275733083366E-6
1.0591827302099149E-6
1.0170698104902173E-6
1.0372679528921578E-6
1.126938654598305E-6
1.2254529973819585E-6
1.3251246523626253E-6
1.4280598353893294E-6
1.548684521109032E-6
1.6704129663464076E-6
1.7949199816651114E-6
1.980300874953964E-6
1.8503850625953527E-6
1.7237661966198597E-6
1.6017988490065205E-6
1.4875466006260194E-6
1.3762545348346513E-6
1.2684545804555045E-6
1.1687077414785003E-6
1.0735827531974753E-6
9.828478905898246E-7
8.964142017131905E-7
8.157999179664886E-7
7.386102926109442E-7
6.678331455973582E-7
5.99126340756166E-7
5.359667802930817E-7
4.770040507765419E-7
4.240128082028072E-7
3.7336044353119836E-7
3.262737051590376E-7
2.8361890387504664E-7
2.47986921903402E-7
2.169890826805378E-7
1.8871228618764605E-7
1.3946055154218085E-5
1.2643159929462286E-5
1.1400703728921063E-5
1.0217777294143493E-5
9.071510632249248E-6
7.995625903236257E-6
7.00847721615636E-6
6.847418454892303E-6
6.946702665956925E-6
2.0731808844938715E-6
1.8288702705173596E-6
1.604776381071012E-6
1.3932946026035817E-6
1.195466396686867E-6
1.0188175362476152E-6
8.564025733986381E-7
7.117665997160903E-7
5.930413575055203E-7
4.921570443189746E-7
4.019456284716782E-7
3.242072137293987E-7
2.5814909301316523E-7
2.0014899525333946E-7
1.2913431227281073E-5
1.0677492403205618E-5
8.646212294974282E-6
6.837654239467793E-6
6.382644659936836E-6
6.525547316388631E-6
6.600596812524027E-6
6.601979896444287E-6
6.520581008927139E-6
6.369892505317013E-6
6.152324283682621E-6
5.875981027102768E-6
5.5436967921877484E-6
5.170387446252469E-6
4.914624620531107E-6
5.066428450294823E-6
5.203827535232882E-6
5.392270330820885E-6
5.704183292646453E-6
5.929291119763865E-6
6.037963673262116E-6
5.9893456144334616E-6
6.11798306421362E-6
5.5623935577332355E-6
4.464223989273543E-6
3.4427723776925845E-6
2.3050671633524747E-6
1.2019740481005635E-6
4.495436732883961E-7
7.23865935737736E-6
5.499359563166658E-6
3.608116741892151E-6
3.9580996583316E-6
5.4207508177267835E-6
3.1595639933088235E-6
3.3266053123056724E-6
1.0922731228022402E-5
4.801442591361313E-7
1.0058085253226697E-6
1.5950193170866714E-6
2.274299602948657E-6
1.931459732469174E-6
1.9505718221255795E-6
1.98621990339124E-6
2.0397424505154337E-6
2.1110309280180614E-6
1.6226286499970954E-6
1.4810435584953573E-6
1.3398344331560778E-6
1.2034752828884362E-6
1.0715118709504725E-6
9.455157453381334E-7
8.255735501625145E-7
7.125614458635649E-7
6.069221447624617E-7
5.102469942768424E-7
4.207195695298422E-7
3.40492599098351E-7
2.6974275668110917E-7
1.1647492552169562E-5
9.760953918695595E-6
8.116576926061166E-6
6.628770502099547E-6
5.270262006546676E-6
4.060139515942099E-6
3.0156468517900787E-6
2.1387701667616937E-6
2.1004839677336496E-6
2.2147775402230735E-6
2.2702650327282775E-6
2.2625750733939947E-6
2.1923233400786755E-6
2.0653746409079313E-6
1.8859585115503158E-6
1.8056009810114538E-6
2.1287100225558025E-6
2.58100593538167E-6
3.1530458997963625E-6
1.3116753570210208E-6
1.4225584301379985E-6
1.3878625477226407E-6
1.0269569409944549E-5
3.0670544863193087E-7
1.1202453407313788E-5
3.1742531825884203E-6
2.875471956618435E-6
4.272177500703632E-6
2.6159005966544226E-6
3.5532568050191085E-7
2.0960705874068664E-8
4.512224384116119E-6
2.9629817954423523E-6
1.6752306241381508E-7
6.426908011586225E-9
5.073788802214619E-7
2.2687273880682105E-6
3.9966855992736765E-6
1.8048316689187997E-6
2.355133892008456E-6
1.6884688495832974E-6
4.718270297823916E-7
2.0394044942481069E-7
7.747841577030329E-7
8.786163338568071E-7
8.057343318883824E-7
5.667768029446236E-7
6.64426650901309E-7
2.2005619804763954E-6
3.215784938070761E-6
3.9344032078357245E-7
3.936213352987552E-7
1.4606359588625805E-6
2.592256542572428E-6
2.656973826968002E-6
2.5842103399583188E-6
2.7439460184931197E-6
3.12727617410147E-6
3.503335531494926E-6
3.447508111206853E-6
2.9381776376697356E-6
2.8975876417645637E-6
7.593738331340677E-7
8.515762259296975E-7
9.099756310149594E-7
9.211343334966665E-7
8.771761998005795E-7
9.259541204812415E-7
1.7315988568852652E-6
1.4557034092167027E-6
1.2030169971350618E-6
1.072824676720124E-6
1.0021502708457884E-6
9.338928990890404E-7
8.646549305650372E-7
7.918195840548315E-7
7.145131323161011E-7
6.34773222059692E-7
6.114067432255837E-7
8.683338529202837E-7
1.4743016366736428E-6
2.3668007533261014E-6
3.5343519255825516E-6
4.9918223510477046E-6
6.766775375333366E-6
8.829041917417731E-6
2.312158978810806E-6
1.8120701138719555E-6
5.653235636254441E-6
6.022073222006384E-6
6.22948462116668E-6
6.245629767400194E-6
6.051377330344447E-6
5.645060923342615E-6
6.055832240242699E-7
6.758777034361193E-7
7.711322605353585E-7
7.876562169405256E-7
6.814932827392981E-7
4.704510887319309E-7
4.620034989113996E-7
9.038507391356016E-7
9.429225021247015E-7
7.310617201762012E-7
1.0922580123106852E-6
1.5784722312322107E-6
1.5215721279110612E-6
5.967955693927512E-6
4.5885910443165274E-6
7.966480240536192E-6
1.1968396594911972E-5
7.797056159456636E-6
9.116512857152121E-7
4.826032229409677E-6
8.143140825990212E-6
8.034468924082518E-6
6.762980573643429E-6
9.252571014272621E-6
1.4431961166505593E-6
1.4194221574298135E-6
9.58634537435362E-7
1.4524315013877104E-6
1.4927626963051467E-6
1.198025511991436E-6
9.611043831429846E-7
9.505068221102549E-7
1.2495309689851554E-6
1.3613611161549954E-6
1.2960068735704494E-6
1.2867371050728907E-6
3.153692153176384E-7
3.9935408217615577E-7
4.722525995243797E-7
5.279257494365546E-7
5.638319630509613E-7
5.778736940109222E-7
5.533657120353868E-6
5.863842185524147E-6
4.823370571872482E-7
9.473313897884924E-7
8.447177934500161E-7
7.505781232637546E-7
6.696711193101984E-7
6.386484836546954E-7
6.108317254074838E-7
5.850169828365343E-7
5.602472707170336E-7
5.358717311124812E-7
5.112768284492348E-7
4.862708352918012E-7
4.6085663493735983E-7
4.3511702136025676E-7
4.0871099666553885E-7
3.8208557524768767E-7
3.550695663773313E-7
3.2837006759472306E-7
3.552618167978815E-7
4.3861346263947964E-7
5.345309724245742E-7
6.5867749866054014E-6
6.603609500014232E-6
6.617573027110667E-6
6.628962047730276E-6
6.636318173507651E-6
6.641172804718512E-6
6.641623504562928E-6
6.642247886981153E-6
6.637268795217513E-6
6.633909762507769E-6
6.626396122883146E-6
6.6175521501998306E-6
6.605101985076046E-6
6.592256599142542E-6
6.577545088799396E-6
6.5606907613994535E-6
6.543541747999964E-6
6.524143173005841E-6
6.502654036470002E-6
6.481131256657013E-6
6.457998300235083E-6
6.433297743919801E-6
6.407284501406071E-6
6.379818147895753E-6
6.352077153644472E-6
6.322465750821663E-6
6.291675392149025E-6
6.259961218379715E-6
6.2282284143473545E-6
2.255984000114539E-6
2.2390217343570917E-6
2.222095228130306E-6
2.2045165795850684E-6
2.186820111825773E-6
2.167866089390213E-6
2.1491197342057817E-6
2.1297885132275847E-6
2.110580671388931E-6
2.090144926985857E-6
2.0697641618704085E-6
2.1392498606814996E-6
2.206847606492513E-6
2.278385872806795E-6
2.3559215808483743E-6
2.4323653853806125E-6
2.5144397728651407E-6
1.447134438645478E-6
7.506189143946835E-6
1.3369597114634102E-6
4.243207356292625E-6
9.152714832920744E-6
1.7254717005355477E-6
2.5138964344677716E-6
3.2000321726913264E-6
3.6227249652648324E-6
2.164761333685289E-6
2.4871046497832765E-6
2.4903278895743294E-6
2.2591665534239353E-6
5.374432078380656E-6
7.177276308741569E-6
3.8028387067616874E-7
4.85359465803649E-7
5.848901515462656E-7
6.660948533448467E-7
7.177449912289244E-7
7.312388408863405E-7
7.040951064906155E-7
6.084904968295882E-6
5.805120938186572E-6
5.472914910282041E-6
5.108071200029975E-6
4.724404082635839E-6
5.277794769056377E-6
6.451493317422627E-6
7.519254034733686E-6
2.2387826767947303E-7
2.4274880698181816E-7
2.5441528140718685E-7
2.594769933977202E-7
6.081204942816188E-6
6.067748578621021E-6
6.193475266523903E-6
7.666522863957701E-6
7.462818397064707E-6
6.107888914375953E-6
5.7064602732578035E-6
5.626310218478716E-6
2.275494790120996E-7
2.18512222908972E-7
2.0534399593352327E-7
7.4678076813927295E-6
6.657664953985226E-6
5.832816955054151E-6
4.980217770567309E-6
4.125327179320344E-6
3.3161777947874275E-6
3.373694813276443E-6
3.5238320601502144E-6
3.661285116771407E-6
3.7893673020152905E-6
3.904852058073693E-6
4.003374347380736E-6
4.080846918871061E-6
4.14695544028344E-6
4.183534992559778E-6
3.931846130857052E-7
3.505777788026422E-7
2.9444480142475725E-7
6.174280551055876E-6
4.72020353137085E-6
3.352740575286948E-6
2.1618092018146373E-6
1.2324865668194038E-6
5.852200900087521E-7
4.751498071674409E-7
4.156060646910847E-7
3.5255990395013014E-7
2.88578701578932E-7
2.2650327576383736E-7
1.1163648926902388E-6
1.1017785554370068E-6
1.0579956243952358E-6
1.0890086694633017E-6
1.090071769325123E-6
1.0530124856314709E-6
9.765785634629073E-7
8.559001138756191E-7
8.581442119302521E-7
6.296348182156653E-7
3.958555017566568E-7
1.9600558077264908E-7
9.052197910621398E-6
7.500120884884269E-6
5.941176225871206E-6
4.446518625027331E-6
3.1246876139516743E-6
2.0234081508465087E-6
8.170614054983535E-6
4.929683393822698E-6
2.7216467034595654E-6
1.3950480085834717E-6
2.003857137721396E-6
8.202096319904408E-7
2.5595753770555746E-7
6.779281659278515E-8
2.3050273252622702E-8
1.5885203428742887E-8
1.5345187576183137E-8
1.703362184109013E-8
1.945476458155972E-8
1.8751818590228714E-8
4.225449621861772E-8
2.153486812798785E-7
7.369010252887708E-7
1.7747454022293497E-6
5.535182710984034E-7
1.3138403568458008E-6
2.637261715212255E-6
4.698156297978071E-6
7.457183097808711E-6
1.8741591985768449E-6
2.688097916086594E-6
3.5606127777956074E-6
4.461646874301625E-6
5.315465498233031E-6
6.073238304111315E-6
6.671858051536274E-6
7.100930328038358E-6
7.288783826830565E-6
5.051004144662333E-7
5.744458294467447E-7
6.224806994450709E-7
6.47267337157472E-7
6.502836271353469E-7
6.359627423269844E-7
6.371790489902576E-7
6.682920905390805E-7
6.770930095034715E-7
1.0456198235013438E-7
1.3260566202704323E-7
1.600352933775181E-7
1.892840110112026E-7
2.1585820568042117E-7
2.4078350995228874E-7
2.635408995173132E-7
2.819297930928547E-7
2.960374000566978E-7
3.0568667453280557E-7
3.1028691195557733E-7
3.099211522033479E-7
3.046447062853859E-7
2.9480979602244243E-7
2.807918758248644E-7
2.6340213699028317E-7
2.4286587693312254E-7
2.1983659388322144E-7
1.3498616409590117E-6
1.3140417431841923E-6
1.2761534342790923E-6
1.2364487822168665E-6
1.1943780010440026E-6
1.1511964660187768E-6
1.106782369198969E-6
1.0611708599654104E-6
1.0142394808626044E-6
9.670726599766024E-7
9.194183139678638E-7
8.715570326538148E-7
8.230879474421125E-7
7.758610114926375E-7
7.281272958218061E-7
6.815632097693069E-7
6.355079585006295E-7
5.909947084398073E-7
5.464289346934567E-7
5.040044438407597E-7
4.6267445512038965E-7
4.225424311960738E-7
1.1680510823379518E-6
1.1786136280948778E-6
1.1846549929136293E-6
1.1851068646142634E-6
1.1811208219743196E-6
1.1726903668762223E-6
1.1603426843258764E-6
1.1750315059548941E-6
1.2071294752281781E-6
1.2288733018956397E-6
1.2437274512483816E-6
1.2508323965696874E-6
3.383502698448776E-7
3.3245781673024115E-7
3.263633651611791E-7
3.1993759767703133E-7
3.133136287513336E-7
6.2021911106504635E-6
6.083065891276196E-6
5.958034296816912E-6
5.827048254717127E-6
5.692166510334274E-6
5.551017731947995E-6
5.407665067694016E-6
5.258855913033909E-6
5.106132674563659E-6
4.949299789173825E-6
4.786266032697151E-6
4.621481863508159E-6
