%%MatrixMarket matrix array complex general
%
1000 1
4.9429745034473695E-11 0
7.353982598183403E-13 0
2.2965458874882825E-12 0
3.407231967262637E-11 0
7.726283460936721E-10 0
1.0607523466935675E-10 0
7.857336164147402E-10 0
9.832214578764513E-13 0
2.8870669017913028E-12 0
1.6026393366424504E-14 0
6.730161745536697E-10 0
5.00033994020002E-15 0
9.71261419270328E-11 0
1.2106795247602976E-9 0
4.5968271095526515E-9 0
8.419807355604709E-11 0
1.6882712283457473E-11 0
2.1822311568042254E-11 0
7.682170102054371E-11 0
2.495176467462088E-10 0
5.6935720016129787E-11 0
2.0613323047038513E-9 0
8.626925586047344E-9 0
2.844319219085532E-12 0
1.5724000978006147E-11 0
2.711558022368068E-10 0
8.509578490768659E-11 0
1.0108704095371916E-11 0
1.781564680466964E-8 0
1.1511282521031528E-9 0
1.596525317370089E-8 0
1.5176532773745547E-11 0
6.870994193363319E-12 0
4.0061888380180856E-11 0
4.1325557847224956E-10 0
3.0299560956877174E-9 0
1.3503751718035937E-8 0
4.0878352089349274E-8 0
2.7272409077701023E-10 0
6.612969721706821E-10 0
8.394664003487032E-9 0
2.573905246618411E-8 0
1.5892462883605684E-10 0
1.085487461069894E-10 0
1.715680096172626E-11 0
6.414948546911297E-9 0
4.307943827223075E-8 0
1.8080167115169714E-10 0
1.7826997011684595E-10 0
2.6580915215657005E-10 0
3.756621929416579E-8 0
4.31058409916767E-11 0
1.335968049896403E-10 0
1.2511328360156714E-10 0
1.2703478922540599E-10 0
2.605574545959172E-9 0
2.1296653450302783E-10 0
1.981835075068805E-10 0
6.408624186689998E-12 0
3.016200975837966E-8 0
1.5335620491718358E-10 0
4.990258305074769E-8 0
4.418309702914556E-8 0
9.257870436683146E-8 0
3.4007394410760873E-8 0
4.917349132476271E-8 0
6.501199940572841E-10 0
2.0348827860350228E-9 0
6.71447992041233E-9 0
6.234474406823967E-9 0
2.0058521765444106E-9 0
5.215221154162608E-9 0
1.69046148765896E-8 0
7.679579940958655E-9 0
3.3587117520844294E-8 0
3.9026426084862926E-8 0
1.146623987581182E-7 0
6.840029635621734E-8 0
1.1676460060933943E-10 0
3.6998141444583934E-10 0
3.982824009062734E-10 0
1.3716874612710704E-7 0
1.1529703252853783E-8 0
2.7681050033902267E-10 0
7.239122524429122E-8 0
6.534377025398174E-8 0
6.882021532419472E-12 0
4.390398352827284E-11 0
1.933036040180928E-10 0
1.2547890321829582E-8 0
9.696517123518334E-9 0
1.2644652396379331E-8 0
1.2111093581965325E-8 0
8.355311171356105E-9 0
4.6425030220895904E-9 0
3.6826121565522266E-8 0
6.362462814919382E-9 0
9.203439001360528E-9 0
1.6776509429361283E-8 0
1.253306179748905E-9 0
2.4844016592552492E-8 0
2.1872027700272E-8 0
6.161623801413063E-8 0
1.7470138002460225E-8 0
2.650618439737787E-7 0
1.5692041991094861E-7 0
1.2424775398403726E-7 0
9.432361415861609E-8 0
6.690849965872994E-8 0
9.362577914733901E-8 0
1.2339834945235127E-7 0
1.4804482821769677E-7 0
1.8113342510246734E-7 0
2.4791762353568573E-7 0
3.870092035551885E-7 0
2.5389911747412664E-10 0
3.379804206588892E-7 0
1.2687836127879765E-8 0
9.990905074944023E-8 0
7.136916038265842E-11 0
1.1549116164493494E-10 0
1.2510395559109223E-10 0
4.295226325762492E-7 0
1.2393499039225823E-7 0
2.4463855377169858E-8 0
2.6525987611785886E-8 0
1.0514233239697806E-7 0
1.2030066858551812E-7 0
8.473844730000836E-8 0
2.0105336354210743E-7 0
3.96863831878506E-7 0
8.506909059796745E-10 0
1.2562174657640423E-9 0
1.4103252557597671E-9 0
6.390215893924438E-7 0
5.5221646038995256E-8 0
7.455610919992521E-8 0
1.2459704371974426E-7 0
1.6121398224829566E-7 0
1.823469138153301E-9 0
5.083630200920238E-8 0
3.04249458676724E-11 0
1.547060638755375E-7 0
3.703989498825451E-9 0
1.609055934899784E-8 0
6.683224998201972E-8 0
1.8257087666283878E-10 0
5.786366038727167E-10 0
9.896943265406952E-11 0
1.931815836979749E-10 0
1.1413090457972836E-10 0
2.083148851408208E-7 0
4.976054327073028E-8 0
2.5659906073261884E-8 0
1.8445029883823595E-8 0
9.705856419041353E-10 0
2.7752488591367096E-10 0
1.9880018742639137E-8 0
4.614112401248991E-9 0
1.249736713834255E-8 0
4.86425807660619E-9 0
3.9248784721910835E-8 0
1.9978849269913496E-7 0
4.90584311485849E-10 0
6.322976732877352E-9 0
2.4781897167580214E-8 0
1.8732902636041422E-8 0
1.7940578996054072E-9 0
1.7424811268554934E-9 0
3.0763902159430555E-10 0
1.091764182853608E-6 0
5.78715736786311E-9 0
3.895318203371232E-9 0
7.466555266285426E-10 0
1.0204056432058663E-6 0
9.010421243572714E-7 0
8.942624774268847E-7 0
8.788609683875983E-7 0
7.904514964187342E-7 0
6.271396869857414E-7 0
5.683511441384622E-7 0
2.3521133555105167E-9 0
5.313687944125946E-7 0
2.394778605425614E-8 0
1.6891716947878628E-7 0
5.285256802389734E-8 0
4.688124532224873E-9 0
1.1143605915657685E-9 0
1.459200264459383E-8 0
3.936522117654322E-9 0
1.582702071061957E-7 0
7.211430636237102E-7 0
6.630551370401513E-7 0
3.4814262486692905E-7 0
1.1197177409281247E-6 0
6.238333185910108E-8 0
1.5031739945483307E-8 0
1.643070536358262E-8 0
3.2186831725472863E-9 0
2.4431779595461668E-9 0
1.348295159066384E-9 0
6.70313393802537E-10 0
3.7204917388079384E-10 0
2.4912757912008706E-10 0
1.596611609751167E-10 0
5.033679872745925E-10 0
9.641718560105373E-10 0
1.2599052558361101E-9 0
3.2585456137672818E-9 0
1.4061791170267564E-9 0
2.789472730226837E-7 0
1.3317549672791284E-9 0
9.232952983294863E-10 0
1.1973605751724993E-9 0
1.6991228389702273E-8 0
7.380492123941735E-8 0
2.0465625894190875E-7 0
3.022131235953275E-8 0
1.0145402534187984E-8 0
6.831493182976322E-9 0
9.972898831982148E-9 0
1.589205509668033E-8 0
2.6060626110685373E-8 0
1.8637907897676933E-8 0
6.434628779441347E-7 0
5.069229212776968E-7 0
3.723262045993708E-7 0
2.4737545161882157E-7 0
1.4040131308788868E-7 0
6.151610028691518E-8 0
1.6721211946096037E-8 0
2.5026982386818224E-9 0
1.0386769439011181E-7 0
4.604338624346923E-9 0
5.4241788425407344E-9 0
4.053873149314019E-9 0
1.6507915718090924E-9 0
4.015131447593503E-8 0
5.569121325899345E-8 0
7.311968365649037E-8 0
9.125640616962324E-8 0
1.0831786038393147E-7 0
1.222221818807021E-7 0
1.3070317231368821E-7 0
1.3161394511382579E-7 0
1.6951318014107845E-7 0
2.3318784932211924E-7 0
3.0847127123426503E-7 0
3.86129735817614E-7 0
5.5781196409348694E-8 0
7.50628280827953E-8 0
7.731171089083231E-7 0
7.684805214347729E-9 0
3.034318909437295E-8 0
3.077621445830112E-8 0
1.541218334115711E-6 0
1.8315676612581348E-6 0
1.3795922650006925E-6 0
7.200933797057267E-8 0
5.366270893461795E-8 0
2.6334236712793007E-8 0
8.935180805422994E-9 0
1.057034005692553E-6 0
1.489875429532963E-6 0
1.7619495217055246E-6 0
1.7941812310465884E-6 0
1.6203280198006414E-6 0
1.0787171251081246E-8 0
1.6569264156119725E-8 0
6.948839744364203E-8 0
3.134788385457445E-8 0
7.53428225875281E-8 0
9.553985128145572E-8 0
6.727981940271608E-8 0
1.8196033033849085E-8 0
2.4479806560841894E-7 0
2.2680592786367196E-8 0
2.174250412280694E-8 0
3.993821148272114E-7 0
2.2084495222171593E-7 0
2.891107849371339E-9 0
1.0243043338728646E-8 0
3.708804316076891E-8 0
1.1318543266405567E-8 0
2.397030051101738E-6 0
4.2461737448602883E-7 0
4.615206211299426E-8 0
1.0692397675363849E-7 0
7.52919880385049E-7 0
2.2163668723314234E-7 0
3.449264579174909E-8 0
2.0047856388501894E-8 0
4.949025281631866E-7 0
4.9821152008778625E-8 0
2.420584046649124E-9 0
2.856758349657661E-7 0
4.872595058877707E-9 0
3.06424542071997E-8 0
1.339737736543744E-6 0
1.8936415364754217E-6 0
1.319952179990636E-7 0
1.181970679331189E-7 0
9.610592152633431E-8 0
7.270965268737081E-8 0
4.721155871199445E-9 0
3.6381219726247317E-7 0
7.069120244143146E-8 0
2.4566290834810387E-9 0
4.37896656206915E-6 0
5.126020063732572E-7 0
1.0487655335988503E-8 0
1.667557325835758E-8 0
1.3666657451891498E-6 0
3.2420302854167056E-6 0
1.9378470435646674E-8 0
2.8284534273952813E-6 0
3.277493679027386E-7 0
2.141587134353897E-7 0
2.1598972105199407E-7 0
1.6879765225143683E-6 0
8.766784987650659E-10 0
7.575206296924762E-7 0
3.465486336547904E-8 0
1.3280010733279193E-7 0
5.019242435509629E-7 0
2.992599258995484E-7 0
7.506177598112585E-8 0
1.0406849178231003E-7 0
2.969611632728686E-7 0
8.838488781917221E-7 0
1.0321299409113232E-6 0
1.1139223210185149E-6 0
8.171944327122701E-7 0
4.8735798460016555E-8 0
1.1431232526498508E-7 0
1.5604681545102192E-7 0
1.4264279729019724E-7 0
1.2214869392674073E-8 0
1.4271239550873015E-8 0
1.0628836760804149E-6 0
9.171982317826198E-7 0
7.714495955312832E-7 0
6.338205362198005E-7 0
5.0814601632595E-7 0
3.968588317983432E-7 0
3.0185275789779443E-7 0
2.2366644699347554E-7 0
1.633882981066854E-7 0
4.8210220424791E-7 0
1.4603040211317453E-6 0
3.4862075350156926E-6 0
1.6975999600672575E-7 0
4.309740406466889E-8 0
1.6088211333141872E-7 0
4.482719535469527E-7 0
9.819185366342746E-7 0
2.9602485514721917E-6 0
1.338723707334834E-8 0
2.2198361309968E-8 0
4.6243570967757834E-7 0
3.0309803170118056E-8 0
7.918532636711292E-8 0
3.936391203849455E-7 0
3.832107135374037E-8 0
4.756649952477936E-6 0
3.637594515196034E-6 0
3.1733186854957583E-7 0
2.9882706536761254E-8 0
5.878198326960084E-8 0
5.606907201516604E-8 0
1.2314560668802075E-6 0
3.395105138915638E-7 0
5.974916191582684E-6 0
1.2645798295091347E-6 0
7.593301743173825E-7 0
4.89149738262916E-7 0
6.006280349944612E-7 0
4.639082852251115E-7 0
2.3568082355247822E-7 0
6.905039531497536E-7 0
5.802005505575084E-6 0
3.784976661653925E-6 0
3.193176311971531E-6 0
2.6466131341558886E-6 0
2.16664207958229E-6 0
1.8157264952664811E-6 0
2.284330102577653E-6 0
2.6673601400529725E-6 0
2.939570885071543E-6 0
3.0923606639318154E-6 0
3.1206814819228277E-6 0
4.165607567006229E-6 0
7.464769733791444E-6 0
2.2800571375682246E-8 0
4.207285738152883E-8 0
7.289468513525826E-8 0
1.2054045898958178E-7 0
1.9061263452904938E-7 0
2.909173541758992E-7 0
4.286515473087053E-7 0
6.11231343440414E-7 0
8.427053953513092E-7 0
1.129115810144244E-6 0
5.746854943318901E-6 0
4.660065641313382E-6 0
3.49653184171247E-6 0
1.4402599511835886E-7 0
2.0631109554074875E-7 0
2.835490520188007E-7 0
3.758160940833815E-7 0
4.817595194436877E-7 0
5.984608230887573E-7 0
7.213167169493531E-7 0
8.473360617088554E-7 0
9.730566568454943E-7 0
1.0940787976525274E-6 0
1.2095079907465253E-6 0
6.974317111952697E-7 0
1.0451323679181047E-6 0
1.4308772939308924E-6 0
1.8287428780137802E-6 0
2.218961730057494E-6 0
2.588552414128936E-6 0
2.9204090544869915E-6 0
3.205028248358636E-6 0
1.0021286422561663E-7 0
7.167454160173312E-8 0
5.206971376126851E-8 0
4.295209966360483E-8 0
4.4019154705227556E-8 0
1.8117984732554203E-6 0
3.2443660015364154E-6 0
5.195227648104428E-6 0
7.522844049479134E-6 0
1.0130754226439346E-5 0
9.08197105016547E-8 0
1.2019680491263542E-7 0
1.5055457738670947E-7 0
4.966185127910343E-6 0
8.338339009544351E-7 0
5.965701357572357E-7 0
5.619554270727433E-7 0
4.900467394624366E-7 0
3.8571646870165667E-7 0
2.6705158515321384E-7 0
8.058735660423146E-6 0
8.157094564937786E-6 0
6.401264196302776E-6 0
6.9659725781727605E-9 0
3.717611235178935E-6 0
4.867390013616986E-7 0
1.595655842839091E-8 0
1.0559903007573125E-8 0
3.704557409689766E-6 0
8.836739526797965E-7 0
2.675399427100205E-7 0
1.0005966814795235E-6 0
1.7028595124755869E-6 0
7.073501023694319E-6 0
2.636449814047458E-9 0
3.8134664732647823E-7 0
2.0199537137186815E-6 0
5.259230686584362E-6 0
1.2041873743217769E-8 0
4.699805912475093E-9 0
4.838031696178739E-6 0
8.430517047212146E-6 0
4.880220277262233E-8 0
3.91619895872804E-8 0
2.5204281233407372E-8 0
2.4754290876808385E-6 0
1.5883210063586895E-7 0
5.597998740077371E-7 0
1.193579303963427E-6 0
1.8761712935667505E-6 0
2.3302487148526577E-6 0
2.3632943902922654E-6 0
1.9399632773883965E-6 0
5.013779017097994E-7 0
4.4658007683660706E-7 0
3.794765556998509E-7 0
3.0676845386346664E-7 0
4.80219194386967E-7 0
7.255293566091186E-7 0
8.584882831878841E-7 0
8.395547821261275E-7 0
3.4699729005718736E-7 0
2.9375242055267146E-7 0
1.54691315286685E-7 0
1.5395390762422952E-7 0
1.528667732753716E-7 0
1.5156410660013384E-7 0
1.4986160763957933E-7 0
1.4779624688789279E-7 0
1.4562800681496352E-7 0
1.429660684867766E-7 0
1.4003022994028768E-7 0
1.3669673723345268E-7 0
1.3320280577047405E-7 0
1.2931661469603227E-7 0
1.2514628972411488E-7 0
1.2061938022608512E-7 0
1.1592250706235606E-7 0
1.1085849956145577E-7 0
1.0561425617536921E-7 0
1.0010595001177851E-7 0
9.449950773285091E-8 0
8.867312324024746E-8 0
8.271570609414367E-8 0
7.669706642749011E-8 0
7.064918279294747E-8 0
6.458405616731067E-8 0
8.160233659247322E-6 0
7.4095994324697355E-6 0
6.666204389298055E-6 0
5.959744453917743E-6 0
8.427227487703251E-7 0
6.563547276041665E-7 0
4.455895201890676E-7 0
2.0559772614607977E-6 0
1.8523692723002196E-6 0
2.0094375618823372E-6 0
1.8546811235547638E-6 0
1.647870582470527E-6 0
1.104340317129669E-6 0
2.467465014594053E-6 0
3.2905652474629553E-6 0
2.3951808982512362E-6 0
1.2754898067228067E-6 0
2.315136477022836E-6 0
1.703814029441965E-7 0
2.1850718783471373E-7 0
2.252943092923659E-9 0
5.121712371951156E-6 0
3.815607116751422E-7 0
7.847433005603274E-8 0
2.5211663734863193E-6 0
1.3304386232751057E-5 0
1.1487298184746354E-8 0
9.149571446998619E-8 0
2.705465337862734E-6 0
3.276101157186076E-6 0
2.1797881945697864E-6 0
9.330534991854142E-7 0
1.6336407158795754E-6 0
1.6327290553236535E-6 0
1.1450916537654098E-6 0
6.908818821212059E-7 0
9.4854657089855E-7 0
1.0885207954614864E-6 0
1.0418884111371276E-6 0
9.16536316591038E-7 0
8.699177612973986E-7 0
1.2719711200152967E-7 0
1.5844475622419308E-7 0
1.8207963112405204E-7 0
1.9523880661992923E-7 0
1.9760545326460357E-7 0
1.9001998842307936E-7 0
3.091066256092221E-6 0
3.81276792176405E-6 0
1.518593357389517E-7 0
1.1670724479920174E-7 0
8.63558366961817E-8 0
8.309483457383588E-6 0
5.5075338845787445E-6 0
3.424602790341337E-6 0
1.9686067237130578E-6 0
1.0851056767006875E-6 0
9.9820834629113E-7 0
1.1466968637352777E-6 0
1.3010503353201845E-6 0
1.4389609574609763E-6 0
1.5784978568729666E-6 0
1.7125050602833938E-6 0
1.8460493886351144E-6 0
1.983061356170288E-6 0
2.3270792729481876E-6 0
2.7562271933986957E-6 0
3.2126486580143145E-6 0
2.4400569682469774E-6 0
1.2910264974356188E-6 0
1.4812187662058832E-6 0
1.584191161162597E-6 0
1.598453683506064E-6 0
1.5350854499246101E-6 0
1.414733610620023E-6 0
1.2652052465662626E-6 0
8.179570675182963E-6 0
7.894149757957313E-6 0
7.886750072698775E-6 0
8.245916640442559E-6 0
7.914540717800524E-6 0
6.86667607871173E-6 0
4.8041148011114374E-6 0
3.428506329987122E-6 0
8.115584420853595E-7 0
7.637157327207199E-7 0
5.567336555124074E-7 0
3.8195470592859314E-7 0
2.551084992250471E-6 0
1.0395493784066717E-6 0
1.3205880770288706E-6 0
3.566766042179288E-6 0
7.536606495145403E-7 0
8.023524378119195E-7 0
1.5745456821337315E-6 0
1.2335093885272423E-7 0
6.368232458371861E-7 0
1.0246664660306607E-6 0
5.2235558659065545E-6 0
5.3952464966586136E-6 0
2.147954205239303E-6 0
7.447046490999362E-6 0
1.4975891436819216E-6 0
8.898327180823704E-8 0
1.7311507248848242E-6 0
7.472617787072084E-9 0
9.040213637438616E-7 0
4.6915433409705837E-7 0
9.218100371732495E-9 0
1.236227755423702E-6 0
9.494445422486032E-6 0
2.5852328674009906E-6 0
8.372819483983297E-6 0
4.923585545557374E-6 0
7.928149544918952E-6 0
2.6769761393863206E-7 0
5.651885345540741E-7 0
4.369758123087428E-7 0
2.3889673928126237E-6 0
2.4814864663177074E-6 0
2.328689104145039E-6 0
2.652632945800719E-6 0
5.47965810778957E-6 0
6.36858853388099E-6 0
4.146862749015157E-6 0
3.4835394398861254E-6 0
3.5057358350798267E-6 0
3.866695041316859E-6 0
4.164770139456747E-6 0
4.387849425255025E-6 0
4.528361135732451E-6 0
4.582765399249031E-6 0
4.546145063755814E-6 0
4.421402555084431E-6 0
4.213588615198536E-6 0
4.575947024735002E-6 0
6.092621246980165E-6 0
7.81116653478932E-6 0
9.76664912954035E-6 0
1.4685714947180044E-7 0
1.8728629362619455E-7 0
2.3421133526537368E-7 0
2.8733543458728456E-7 0
3.496885065640221E-7 0
4.3659405880291484E-7 0
5.342650354965676E-7 0
6.438211333030159E-7 0
7.644849172186534E-7 0
8.937173491100768E-7 0
1.0336769621747073E-6 0
1.1833872754643783E-6 0
1.3384305114248455E-6 0
1.5047529204512E-6 0
1.6760300619808847E-6 0
1.8550515490160917E-6 0
2.039229847043093E-6 0
2.227328167825438E-6 0
2.4187841976439447E-6 0
2.6142685170998166E-6 0
2.813137928793761E-6 0
4.283379062569005E-6 0
4.124902446918704E-6 0
3.994558040364151E-6 0
3.884244854426975E-6 0
3.7930514281177415E-6 0
3.7248566760787966E-6 0
3.6640454044116393E-6 0
3.6360189858132373E-6 0
3.6220676351595785E-6 0
3.6209858740374523E-6 0
3.642336353352536E-6 0
3.6785961952699254E-6 0
3.7355403746066782E-6 0
3.8092425483598116E-6 0
3.9005895435161915E-6 0
4.010095588804501E-6 0
4.141486550788848E-6 0
4.292287180922657E-6 0
4.4648141466421826E-6 0
4.665717276745835E-6 0
4.891147081286106E-6 0
5.133322656170411E-6 0
5.409838270455249E-6 0
5.718717095509304E-6 0
6.04747145149387E-6 0
6.414998611506729E-6 0
6.817006100695943E-6 0
7.246655589110361E-6 0
7.738128269547503E-6 0
8.254680075367256E-6 0
8.803927773463758E-6 0
8.866196943208682E-6 0
8.710958429259503E-6 0
8.517543229187748E-6 0
8.330970751440275E-6 0
8.122330258647728E-6 0
8.06489588762855E-6 0
8.056400718121695E-6 0
7.989358824447539E-6 0
7.857163808331797E-6 0
7.645141222934983E-6 0
7.3428180195651155E-6 0
6.955429104621373E-6 0
6.427863576272312E-6 0
5.852207782214446E-6 0
5.127055837478271E-6 0
4.346317993570537E-6 0
3.6937712267395213E-6 0
3.2589868883494175E-6 0
2.7990895478038422E-6 0
2.2901121330256297E-6 0
1.7954176671624105E-6 0
1.3437357014174612E-6 0
9.872254260906725E-7 0
6.578593316213258E-7 0
3.6551744515885066E-7 0
1.2465630435412584E-5 0
8.201710473015785E-6 0
8.640071439609679E-6 0
7.864208196520223E-6 0
5.832800023892519E-6 0
1.0281554368458723E-5 0
6.106064212288226E-7 0
3.5205990553914E-6 0
8.327311676598969E-7 0
8.601350027853118E-6 0
2.3069401944823817E-7 0
1.2394567882635573E-5 0
1.371367004901605E-5 0
1.3401933130291179E-5 0
2.8757250169775323E-7 0
6.546884592331064E-7 0
1.0926009594740743E-6 0
1.6991958849431183E-6 0
2.3326666207659636E-6 0
2.989148599050736E-6 0
3.6826517653854463E-6 0
4.360810030229991E-6 0
4.8990066105080614E-6 0
5.494448874901752E-6 0
5.993184682314141E-6 0
6.406048173389031E-6 0
6.82158515246703E-6 0
7.155819627612995E-6 0
7.4302236226903E-6 0
7.640284908417999E-6 0
7.831298521186449E-6 0
7.979177529625385E-6 0
8.083359418741822E-6 0
8.162706243091468E-6 0
8.283132816673988E-6 0
8.51043550104309E-6 0
8.69627872780238E-6 0
8.905795604879365E-6 0
8.875763226763594E-6 0
8.82877733900407E-6 0
9.050335781521569E-6 0
9.30223464954048E-6 0
9.538179843487015E-6 0
9.767475882060039E-6 0
1.0011511008462172E-5 0
1.0224470971103075E-5 0
1.0420614327738906E-5 0
1.063175039350253E-5 0
1.0824901428425871E-5 0
1.0992540604312027E-5 0
1.1169299680907098E-5 0
1.1321263066846744E-5 0
1.1467838475027423E-5 0
1.1606316912993864E-5 0
1.1737216855318804E-5 0
1.1848739990764044E-5 0
1.19641629355667E-5 0
1.2057095973259962E-5 0
1.2147648992770336E-5 0
1.2233151342152761E-5 0
1.230399428337511E-5 0
1.2362906240089835E-5 0
1.241567136144877E-5 0
1.2463937150230403E-5 0
1.2499648601610453E-5 0
1.2535498944165295E-5 0
1.2559775244284363E-5 0
1.2579240246013787E-5 0
1.2586495635028385E-5 0
1.2595939636272826E-5 0
1.259397568613969E-5 0
1.2594345361965881E-5 0
1.2585970966199196E-5 0
1.2569436544557211E-5 0
1.2554636724372705E-5 0
1.2533181483232126E-5 0
1.251126971498406E-5 0
1.2479602752843677E-5 0
1.2454513671806275E-5 0
1.2429844890161874E-5 0
1.2381570179460967E-5 0
1.2361328312512443E-5 0
1.2316354134640783E-5 0
1.2273971715671505E-5 0
1.2238211982121608E-5 0
1.2194386802688605E-5 0
1.2159248609847122E-5 0
1.211177251344558E-5 0
1.2091462112031492E-5 0
1.243589421192693E-5 0
1.2635487272067195E-5 0
1.2902440144258029E-5 0
1.3226894108499802E-5 0
1.3429347784224647E-5 0
1.366126503697814E-5 0
1.3858511745766533E-5 0
1.398149962731737E-5 0
1.4292559639938644E-5 0
1.447446775134628E-5 0
1.4565030366584349E-5 0
1.4739154638485823E-5 0
1.4921773423110483E-5 0
1.4929387387524842E-5 0
1.5123498805715073E-5 0
1.5167050844936726E-5 0
1.522441577006176E-5 0
1.531019102592575E-5 0
1.5368000564569583E-5 0
1.5407124751980064E-5 0
1.5456426565184822E-5 0
1.532872870510239E-5 0
1.529165412598489E-5 0
1.5334310089238994E-5 0
1.520879010070522E-5 0
1.5210970862079571E-5 0
1.516244743015189E-5 0
1.5067866258148014E-5 0
1.4939628158554822E-5 0
1.4864123799966032E-5 0
1.4689238948755118E-5 0
1.4604641155717017E-5 0
1.4368334384663766E-5 0
1.4226603079418404E-5 0
1.408993289721478E-5 0
1.3957639712933195E-5 0
1.3679248413836568E-5 0
1.3431594787705335E-5 0
1.3234887076738768E-5 0
1.3051485745769624E-5 0
1.2793876449184317E-5 0
1.254625266294601E-5 0
1.2234709209178382E-5 0
1.2003479370846254E-5 0
1.1797124773128511E-5 0
1.183152249125709E-5 0
1.1858796266522859E-5 0
1.187772248539655E-5 0
1.1879126612568451E-5 0
1.191327075352372E-5 0
1.1939682522980091E-5 0
1.1955963184081473E-5 0
1.1972052339618167E-5 0
1.1981230094799597E-5 0
1.1989221049209681E-5 0
1.2013158529425218E-5 0
1.2011056127529766E-5 0
1.2006378749532232E-5 0
1.2017939768590113E-5 0
1.2001674629787346E-5 0
1.1999548348348693E-5 0
1.1986848571021681E-5 0
1.1970272175616337E-5 0
1.1948705156676148E-5 0
1.1916736014378783E-5 0
1.1882997883690371E-5 0
1.1843502338027391E-5 0
1.179595323768504E-5 0
1.1741567597132443E-5 0
1.1683629582609587E-5 0
1.1607132194416369E-5 0
1.1533333242394657E-5 0
1.1453769001295043E-5 0
1.1363449650755126E-5 0
1.1260670248838388E-5 0
1.1139443916761738E-5 0
1.102522397022481E-5 0
1.090292645960345E-5 0
1.0767999960349265E-5 0
1.0610028219565934E-5 0
1.0451463743305366E-5 0
1.0281985953836944E-5 0
1.011935143923755E-5 0
9.925791769324757E-6 0
9.744775396294976E-6 0
9.52733545091377E-6 0
9.303609323411282E-6 0
9.08733538547543E-6 0
8.86774096751469E-6 0
8.618989316384163E-6 0
8.383171329758124E-6 0
8.111978441121897E-6 0
7.832492469110836E-6 0
7.665442846242033E-6 0
7.524558030588146E-6 0
7.363979961692404E-6 0
7.135534456304956E-6 0
6.8835894880550305E-6 0
6.4927213586870355E-6 0
6.021350804501661E-6 0
5.519074468376004E-6 0
5.122339585272482E-6 0
4.677885123898488E-6 0
4.234963573245771E-6 0
3.738345295299803E-6 0
3.162134492750278E-6 0
2.550920497891805E-6 0
2.016713110214605E-6 0
1.3748326987775464E-6 0
8.81992640867968E-7 0
4.5108797288296726E-7 0
1.2590185985864825E-5 0
1.2981755469430303E-5 0
1.2950031274928898E-5 0
2.746096309120803E-7 0
1.382371854634606E-5 0
6.608141083681591E-7 0
1.803777614540119E-7 0
9.516899841631256E-7 0
8.245320610142994E-6 0
1.084286144165602E-5 0
9.9207237820566E-6 0
8.808501263546988E-6 0
1.047533164110062E-5 0
4.2090029936318824E-7 0
7.399422937177286E-7 0
1.120771737644187E-6 0
1.53634083237923E-6 0
1.9683616903064474E-6 0
2.3792125767466434E-6 0
2.706649981304359E-6 0
3.022889112782665E-6 0
3.323959695919632E-6 0
3.5758154343006073E-6 0
3.764273644409344E-6 0
4.018299472774244E-6 0
4.216807689164399E-6 0
4.446172294472598E-6 0
4.652938327317981E-6 0
4.858860502590583E-6 0
5.036253074370431E-6 0
5.224499293087062E-6 0
5.399186279856049E-6 0
5.5686169325029795E-6 0
5.70940926141093E-6 0
5.860557460062325E-6 0
5.994587465519668E-6 0
6.108723603494618E-6 0
6.219515024459416E-6 0
6.309538274654392E-6 0
6.389054052764593E-6 0
6.46377884858893E-6 0
6.517585214829347E-6 0
6.5570186963750265E-6 0
6.580073113440386E-6 0
6.591073484474668E-6 0
6.588629309602407E-6 0
6.57113622984376E-6 0
6.5402271284562626E-6 0
6.4934116414598175E-6 0
6.43896628666171E-6 0
6.365884184770035E-6 0
6.282216963027288E-6 0
6.181501702745497E-6 0
6.080445595652264E-6 0
6.284596477742506E-6 0
6.870938873302935E-6 0
7.463400682956059E-6 0
8.04246934556628E-6 0
8.288275647608593E-6 0
8.087778310311347E-6 0
7.897820784471404E-6 0
7.698862191323145E-6 0
7.502442735718052E-6 0
7.3116119057059265E-6 0
7.1178605452833406E-6 0
6.9322796390512345E-6 0
6.749457711133588E-6 0
6.561362908005913E-6 0
6.385081522703492E-6 0
6.205207512206202E-6 0
6.026858493301716E-6 0
5.856000083620237E-6 0
