%%MatrixMarket matrix array real general
%
1000 1
1.615059766182421E-11
5.88535374090051E-11
5.783485432091834E-10
3.862064703136467E-10
5.744838246207263E-12
1.0385694816304853E-10
1.4438195210299933E-10
5.503895312339741E-9
2.2212037882127194E-13
3.856335102275864E-12
1.2938945507012564E-11
8.9860701917541E-9
8.250816206136073E-12
2.7045083628461655E-11
5.30328535217684E-11
4.1009707331372326E-10
6.506095958187227E-9
1.902226887829171E-10
4.681593549593548E-10
3.7050780609962657E-9
2.301933473168693E-8
2.5623104453267316E-11
2.854543596676562E-8
4.362276232221315E-11
3.614743877109192E-8
2.5151159171737384E-9
4.500203092039873E-9
1.5973971610147972E-9
1.0234097091238166E-9
1.6485274771700458E-9
9.516868574328146E-8
2.648361538226994E-8
3.659548046943711E-8
7.043752165552737E-9
2.62631779811377E-9
1.220824185422968E-9
7.182311302280757E-8
2.785621486313618E-8
1.8044971510557265E-10
1.4012516062625052E-7
6.91499832661162E-10
4.924834451410463E-11
3.6337337870127995E-9
1.2896212824367515E-7
4.829946141860822E-10
2.0209884620012973E-8
1.8886075874424754E-8
1.0874296053412336E-8
2.9533806739206126E-8
1.310150250902168E-8
4.4327009791986026E-8
1.4125627119470417E-9
2.1889857826403286E-7
3.080120703978823E-7
1.1298387826774866E-7
2.6071843612454144E-7
2.711518694390781E-11
4.6222051380143644E-10
8.871897034431365E-9
4.561646452377735E-8
3.926882374429325E-11
2.9580867916637784E-7
3.5272803368350595E-8
5.011639222133032E-8
2.6465665215699136E-8
1.644165051488212E-7
4.7374113848815663E-7
5.455574960798061E-7
1.2771521555542253E-9
1.4835219940604082E-7
3.979766887310859E-9
1.3456335102003044E-9
1.4705037720510165E-9
3.5204295527628457E-10
7.445668680567109E-9
4.502072999950203E-10
2.8984074796605967E-9
2.5356834147889247E-10
1.0895080878352423E-9
3.910346804700734E-7
4.8726340397697134E-8
7.787699883815696E-8
1.1139087540308898E-6
2.0728084767043367E-8
1.0260742773271034E-7
5.076343278539011E-10
1.3278429257556557E-9
1.4098841509290634E-9
6.652608083524086E-7
6.601562505208401E-7
5.582946552757827E-7
8.013551489069726E-7
3.473919114277781E-9
4.187411696983075E-8
2.1855253358388116E-9
8.3098284220544E-9
2.397431166165627E-10
6.563143989897439E-7
3.808596394975917E-8
8.496403506842863E-9
1.3918467973159244E-9
8.298166833400085E-10
3.9714428352383116E-10
2.2586238601505076E-10
1.6204956522436929E-9
1.2571542832311569E-9
9.818422874649955E-9
3.0292540560300483E-9
2.2276242196448114E-8
1.152800936013143E-7
1.197731379741759E-7
1.2325462765575893E-7
1.7729838663065568E-7
7.646933327638694E-8
1.5530733933249148E-8
8.633553478436574E-9
4.707387809518119E-9
1.816526920689188E-9
8.214257853943967E-10
8.746793945911331E-8
3.112173900064128E-8
4.515701618071962E-8
5.5929582117328586E-8
1.1090092531540054E-7
1.9760758755497092E-7
2.840781823698075E-7
1.5284020854758264E-8
4.921182061682721E-9
5.432597909004621E-7
1.1493069822765388E-6
4.2405755916076324E-8
1.103223403625889E-8
7.524366422806977E-7
1.2228396940456637E-6
1.1229232153228275E-6
7.697680651115071E-9
8.478622192786533E-9
3.284233503395265E-8
1.1303858597839058E-8
6.092186925372051E-8
2.2781430633993648E-8
2.9706345883793645E-6
2.982749713010048E-9
6.662070588528517E-9
1.3207475437215104E-6
2.1090894033595804E-7
4.027478867092909E-8
9.95321520661981E-10
4.5365046159113605E-10
2.5630495754077407E-7
4.876979275029173E-7
4.608435003484895E-8
7.5797827475594E-8
2.9194547979460423E-8
2.978290157482728E-9
1.4023214448469626E-7
3.470282003895679E-8
1.0406367630090725E-8
3.889752744336632E-7
1.456497496392169E-8
4.491328171802986E-7
1.0858151332839205E-7
1.2173199514539565E-9
1.6616310750563102E-8
4.0614162129419054E-7
3.5159194579407454E-8
2.2594555269756646E-7
7.950605192175844E-7
6.592340580559517E-7
6.974290132122859E-8
1.0488669405276365E-7
4.4389912643907214E-9
7.796610301741311E-7
5.273323542276688E-7
3.159097805345749E-7
1.663399250872701E-7
1.7357926314120248E-7
2.11046798334242E-6
9.013930561753152E-9
1.7516481161285573E-7
3.960003656297615E-6
5.580169422680594E-6
2.602941005237507E-8
4.4061353828127746E-7
3.4765306362251585E-9
4.318049779570931E-8
1.2127979313342453E-8
4.3042625076585106E-7
4.670365584100754E-6
7.438144612272736E-7
4.1329052963989716E-7
1.24772620349067E-7
2.169191777991769E-9
2.3783561163210124E-6
1.5248181080976555E-6
1.2245857742308236E-6
1.9071741834100734E-6
2.1765384282721105E-6
6.290366428936506E-6
1.520523597002679E-8
5.2827604732298014E-8
1.5057908599505315E-7
3.63842828690753E-7
4.109657763453775E-6
2.4050376733592864E-6
7.594252210371492E-8
1.8579430927839642E-7
3.5756607459717744E-7
5.643737180724584E-7
7.585537884559844E-7
3.7941509348039953E-7
1.0460730957679653E-6
1.8515027677867856E-6
2.570025691266945E-6
1.9476933754335466E-8
8.259809549371545E-9
1.3376293374513666E-6
4.772222378256971E-6
3.169932740360881E-8
7.250547158552051E-8
9.957785603752356E-7
8.669816910111386E-7
8.137536576799935E-7
7.085236921933431E-6
1.0066947281754988E-6
3.8829938938775586E-8
5.944584529977436E-6
5.2370656581510335E-8
5.826247623168598E-7
6.417378247765496E-6
7.84727280706874E-9
4.130885661065339E-8
4.993794680666437E-6
5.001073454308502E-10
9.701791046260038E-6
6.442151065145361E-9
9.103823523373861E-7
3.3185068585421483E-6
6.576568903621445E-7
2.122653255458314E-6
3.3753786392091113E-7
2.5343518147219293E-7
1.4734752940520806E-7
3.698915156078159E-7
6.371769426137872E-7
1.5315747207382376E-7
2.630509660442493E-7
4.256038129185764E-7
9.048422628532641E-8
8.889774391463833E-8
8.640812211139114E-8
8.312130938503418E-8
7.907938996532226E-8
7.412666569823617E-8
6.85181767469138E-8
6.226588423491573E-8
5.5468035781441176E-8
4.8367310953331385E-8
4.1086027074533334E-8
7.338425680135092E-6
6.009169717403098E-6
4.781329315763129E-6
3.691920978990725E-6
1.289586369569779E-6
1.0740159770450453E-6
1.2369246185784448E-6
3.0540223906840215E-6
1.1027526992561583E-6
8.187851744760155E-8
8.342164442219446E-9
2.6989992220230933E-6
4.888424087028298E-7
1.3657708343468686E-8
4.3519554672817625E-8
3.5966223268909655E-6
7.596888526594494E-7
1.49940800436122E-6
5.316965284793652E-7
8.6788094401313E-7
7.587530041695231E-7
6.685379645274679E-8
1.1433287869613631E-7
1.4070379426314982E-7
1.373958998154439E-7
3.669873626544799E-6
9.159300451650897E-8
4.9130724729408813E-8
4.343574345336755E-6
1.332595177654374E-6
9.322235263120268E-7
1.209582936171332E-6
1.4818508607061597E-6
1.7411728970320278E-6
2.086548482544864E-6
2.8328818854130936E-6
2.980446099666818E-6
1.2575568009649861E-6
1.536951594663033E-6
1.5149837971752379E-6
1.2915907162880169E-6
7.215630017082345E-6
6.43600921030841E-6
5.03469099497148E-6
2.6561537046903427E-6
7.823264144882277E-7
4.375348978062232E-7
4.273430964597767E-6
8.167367851713074E-7
5.6273486034035685E-6
1.1518731927965929E-5
3.0511944557830002E-6
6.577367574784177E-7
2.2227897068769957E-6
3.977073493146118E-6
1.101441636331286E-5
4.412034581305076E-8
5.480827015009691E-8
7.334125973365519E-7
7.281600642046144E-8
4.8163216963560006E-8
1.0191644512665078E-5
1.808763159442359E-6
4.224252211571427E-7
4.1115352210468664E-7
2.6573748557223075E-6
2.3024776193729586E-6
1.0176806603294795E-5
4.5548620372745814E-6
4.058326874332927E-6
4.761470567455991E-6
5.279081648799973E-6
5.474385661877903E-6
5.3233689609551345E-6
4.852427569927801E-6
7.514902592808907E-6
9.052815963257013E-8
1.4668269465749696E-7
2.2165516307692797E-7
3.1688876243097035E-7
4.6664732414274204E-7
6.524108321056583E-7
3.366110183950386E-7
1.0054591875803044E-5
6.9516546522432985E-6
7.5141084154925085E-6
2.8487618782156374E-6
4.976417510196881E-7
1.3525666433069337E-5
1.3913216666579128E-5
2.9826752905789853E-7
1.3944181557481838E-6
3.5224208895216243E-6
6.166732693950835E-6
9.732446869078993E-6
8.70703455897547E-6
9.011628275182028E-6
1.057019734428466E-5
1.353360627718867E-5
1.696576857917678E-5
1.4940222075466593E-5
1.2580188825105066E-5
1.174747136877357E-5
1.1228237750664352E-5
1.0770877666601376E-5
1.1164109355689817E-5
1.2161879408138901E-5
1.3079522795690353E-5
1.3880844236693868E-5
1.455714682379542E-5
1.508121219360027E-5
1.5456904442787383E-5
1.5676498920988972E-5
1.573614735635051E-5
1.5635701015258275E-5
1.5402607396213837E-5
1.501593698883833E-5
8.876118293578793E-8
1.242755421949347E-7
1.6865174978179781E-7
2.2339616202132035E-7
2.904197866614101E-7
3.697103874183764E-7
4.6144821016946473E-7
5.664877685876182E-7
6.864975116797838E-7
8.223978689787909E-7
9.63953915329181E-7
1.1271413074895484E-6
1.2943068536494284E-6
1.5496078979328518E-5
1.578026648159321E-5
1.6002090457815866E-5
1.616131454480979E-5
1.6267717976141036E-5
1.6318533098415864E-5
1.6326982630836175E-5
1.6284278134044423E-5
1.6204160651662352E-5
1.6080923625284133E-5
1.592506901764714E-5
1.575712587187914E-5
1.5531912110307636E-5
1.572736177369086E-5
1.740360547332543E-5
1.1499748374059588E-7
1.3333970154777872E-7
1.5317678722159297E-7
1.7548784195810533E-7
1.987599680545982E-7
2.2368009833664571E-7
2.498588732737053E-7
2.7651756546659223E-7
3.0603053493166776E-7
3.3608269402618365E-7
3.6653315210330815E-7
3.987484214281687E-7
4.2974812344274885E-7
4.6334487470271655E-7
4.987761977811043E-7
5.343114298458505E-7
5.739447695952556E-7
6.098607176802551E-7
6.475323013318839E-7
6.839790975703213E-7
7.182423243946445E-7
7.548311995051918E-7
7.914141752189707E-7
8.24633626380125E-7
8.558664871653991E-7
8.889128107253158E-7
9.146603636685582E-7
9.42356017699571E-7
9.696264807684464E-7
9.932507746945033E-7
1.0136219301208662E-6
1.0328739131146641E-6
1.052294809868225E-6
1.0654262537146987E-6
1.080005171324201E-6
1.0895769148795086E-6
1.0984337580887718E-6
1.0982178039531283E-6
1.1077220445964132E-6
1.1013291472232354E-6
1.1033554192111514E-6
1.0982585777258294E-6
1.0867789564617988E-6
1.0797443970248774E-6
1.0677938584834277E-6
1.0531490840063518E-6
1.041728775275962E-6
1.0217566611987575E-6
1.0015688417701755E-6
9.805295283286638E-7
9.572962754532518E-7
9.315854574178462E-7
9.056281671747188E-7
8.790128626904299E-7
8.506459344399912E-7
8.173330354857034E-7
7.88540874257398E-7
7.567390694007373E-7
7.245110682151357E-7
6.940116894162421E-7
6.604847461251002E-7
6.276010658008227E-7
5.942552927897155E-7
5.608868343892475E-7
5.2907086632895E-7
5.017816862980072E-7
4.7209318910886053E-7
4.4323944020105616E-7
2.9903649594888217E-6
2.769222135847741E-6
2.5295011452041403E-6
2.3115026390400754E-6
2.0897384140874505E-6
1.8882071815824602E-6
1.6842263425227946E-6
1.5093347196671633E-6
1.3485020093190679E-6
1.2042434523146608E-6
1.0618490575698593E-6
9.286475813864931E-7
8.079141704016307E-7
6.978810775849283E-7
5.929587401183745E-7
4.993432173609377E-7
4.174187101637763E-7
3.465310369140395E-7
2.8217198176801105E-7
2.2474667712535237E-7
1.7790391001507128E-7
1.380938981579438E-7
1.4698535249346392E-5
1.496579873938437E-5
1.5159733398439332E-5
1.5250512924907969E-5
1.5257923913199493E-5
1.5155412313659357E-5
1.4962241760993207E-5
1.466714890894442E-5
1.4276793459974045E-5
1.3797077667734186E-5
1.3236195535819571E-5
1.2608167019696791E-5
1.1894619464767681E-5
1.1140423930005065E-5
1.0546334435471264E-5
1.0406311682744306E-5
1.0317084491344127E-5
1.034807542386903E-5
1.0390602158643247E-5
1.0235458677302777E-5
9.742393864055034E-6
8.870485306627799E-6
7.514817824313936E-6
5.7680633639925634E-6
3.8953417604008995E-6
2.0789492129282455E-6
7.610547208807824E-7
1.4841674993160435E-5
1.3088445539113735E-5
1.2352498174778E-7
1.2441182757955503E-6
7.320213230181441E-6
9.301628635687611E-6
9.072255119076117E-6
5.016014812784529E-7
1.2074360785650433E-6
2.235036558515182E-6
3.3379723570668517E-6
4.820855556622331E-6
6.803647605096714E-6
8.302744952684042E-6
9.29454925554271E-6
9.858324079641039E-6
1.0086554067219783E-5
9.157717848568708E-6
8.515952895018868E-6
7.921408060905047E-6
7.381121842110758E-6
6.903810750764672E-6
6.455967322464457E-6
6.061757696776234E-6
5.7073553036653596E-6
5.3863482621788395E-6
5.1105705490078025E-6
4.8616839569071894E-6
4.643738720910021E-6
4.444484420271596E-6
4.2836911333207935E-6
4.146796817963476E-6
4.016740386889964E-6
3.9280024790708904E-6
3.847693265887038E-6
3.79970188773122E-6
3.7689870119387618E-6
3.7581324241412736E-6
3.7705400429126576E-6
3.792139384705316E-6
3.8513009304269746E-6
3.914640169656336E-6
4.006387219838789E-6
4.125837746783848E-6
4.260116134507748E-6
4.41814126766278E-6
2.8539045862730557E-6
2.643775760532081E-6
2.4361967158340332E-6
2.2348393429686423E-6
2.035828822861522E-6
1.8447727054110779E-6
1.6594156302618212E-6
1.4835211732032734E-6
1.3151936113497547E-6
1.1551897865026975E-6
1.005830699518736E-6
8.657313470283116E-7
7.383019818878875E-7
6.197355291238529E-7
5.124133184593652E-7
4.176525757251507E-7
3.3978863574055505E-7
2.8034143115933975E-7
2.2848479220488066E-7
1.8294450370783298E-7
1.1150078067396E-5
9.132481362286558E-6
7.328201692391597E-6
5.725004825403278E-6
4.331969951525785E-6
4.372888361925192E-6
4.532911024413606E-6
4.62068173534799E-6
4.630762071977213E-6
4.558319801036692E-6
4.41162501425931E-6
4.19393567318288E-6
3.911759103950329E-6
3.5770116246866697E-6
3.386264381156105E-6
3.998180165856441E-6
5.715804476724815E-6
6.606154801459477E-6
3.3567137594131793E-6
2.8767178958025215E-6
2.434784304535655E-6
2.4592120414952407E-6
4.095922812577332E-7
4.772587498186385E-7
5.661187613018607E-7
2.1874551406828764E-7
7.55214849909518E-6
4.984949660672263E-6
7.857303686275159E-6
2.3731165499155376E-6
9.45720011796731E-6
1.152991368213646E-6
1.4212263348265454E-8
1.1956722143837789E-5
1.247075024162232E-5
9.929095314441553E-6
7.603569550735229E-9
1.586750657861894E-6
1.0515030024431881E-7
1.9758009486193355E-6
7.479568801140575E-6
3.4237839516377278E-6
3.538021353858378E-6
1.0126535911263884E-5
1.0196399754647731E-6
9.587874253058268E-7
6.669437866355302E-6
1.060600446493664E-5
1.726413332964511E-6
1.432884392508902E-6
7.075280549830325E-7
3.1160989875989695E-6
4.0964290191823516E-6
1.2157564146426896E-6
1.1363909877019526E-6
2.452751943236695E-7
5.059640180911043E-6
7.0466404136646E-7
8.132313127986582E-7
8.136940702403094E-7
5.1853062150601905E-6
7.236766307411633E-6
8.575538725276837E-6
9.131413379936026E-6
9.465218462461708E-6
9.720667121766068E-6
9.739913026472646E-6
9.193675811309358E-6
9.10292834210353E-6
9.36121194965846E-6
1.2907411140149138E-6
1.4030189852009032E-6
1.4928148002733492E-6
1.5471742010297208E-6
1.5540829032138644E-6
1.5067561587556314E-6
1.4046742972404046E-6
1.8671839339920684E-6
2.655407129630255E-6
3.0239968558028613E-6
2.645779253089857E-6
2.29640320318839E-6
1.969483935847051E-6
1.851434510209798E-6
1.7427068710827224E-6
1.6380711388413762E-6
1.546199411864244E-6
1.5252936209593332E-6
1.465890107511776E-6
1.3701394284990999E-6
1.2414427868522774E-6
1.0866371975293677E-6
1.116367289578357E-6
1.6351883176976687E-6
2.513047957185804E-6
3.6659877102408934E-6
5.124807976401985E-6
6.935980331695081E-6
9.090313488150704E-6
1.268457438530848E-7
1.6082020312478397E-7
2.0061912030998202E-7
3.977710110712703E-6
2.9783069905276754E-6
3.045735311370117E-6
2.3087428364929033E-7
2.4191894933246317E-7
2.4731874810487875E-7
2.4638827402041763E-7
2.3844631775159764E-7
2.2372467321756222E-7
2.0239152512395737E-7
1.7608823969298296E-7
9.565777002538052E-7
9.736428247455269E-7
1.092686958783375E-6
1.1689158382464078E-6
1.1812329686590204E-6
1.089075785355902E-6
8.723758495463247E-7
8.205081915389694E-7
1.0528966604302392E-6
1.411149092473912E-6
1.6679181945953306E-6
1.7296436972114795E-6
1.514391520353389E-6
1.0351304347273528E-6
1.8650103017518255E-6
2.342156323461929E-6
2.2854168444602683E-6
1.3005838565884293E-7
1.0444891683693608E-5
6.11729885439604E-6
9.08715582360215E-9
8.513525066870237E-6
9.56196784482479E-6
1.1020126739827129E-5
4.440552047718965E-6
5.28427155337952E-6
2.2508201486351124E-6
3.6352901332155973E-6
7.532458452405864E-10
1.7257165448216077E-9
2.773977974721942E-7
2.77529387862038E-7
4.799411797196988E-6
1.979737007082556E-6
1.7125024898131187E-6
1.0184099911911395E-6
2.5476674393384247E-6
2.8036834502007577E-6
2.617422702332642E-6
2.1377384070191573E-6
1.538484470984185E-6
1.6994229013181906E-6
1.626238806312474E-6
1.7073181845737332E-6
1.977217521610131E-6
2.06756400544577E-6
2.021501313467995E-6
1.882015407776268E-6
2.0253741030482613E-6
4.957051368706874E-7
5.988161872107025E-7
6.943582932156536E-7
7.75443396824283E-7
8.421229805398089E-7
8.905872756803276E-7
9.20842222777327E-7
9.320707515494172E-7
3.340954066902567E-6
3.6023420269688236E-6
3.870389548565004E-6
4.146286938057479E-6
4.429628272429017E-6
4.714798584283502E-6
5.00872755032524E-6
5.304290819188408E-6
5.600556763431115E-6
5.906570509725176E-6
6.209447675622092E-6
6.514009712218916E-6
6.826576217457685E-6
7.131991927905872E-6
7.439392228960134E-6
7.750127248326553E-6
8.058771186603085E-6
8.363399499907034E-6
8.668399302845257E-6
1.0390732027000345E-7
1.0758679949271759E-7
1.1116563223554625E-7
1.1464027742159204E-7
1.1813558976648521E-7
1.214945454514775E-7
1.2477252329895521E-7
1.2798769061775818E-7
1.3115729669270164E-7
1.3417496785862042E-7
1.3723030732057452E-7
1.4006228893879958E-7
1.4289131911818555E-7
1.4561349141719915E-7
1.4823367946285057E-7
1.5079775687251065E-7
1.5323423568796404E-7
1.555451694978975E-7
1.57856914102398E-7
1.6009514166599492E-7
1.6219197393190703E-7
1.642137116163119E-7
1.6609653488097622E-7
1.6793514284135646E-7
1.696763411251077E-7
9.090404218858847E-7
9.084086852231421E-7
8.793874659275461E-7
8.210789753255759E-7
7.380005618263622E-7
6.315208123279444E-7
5.128605471367043E-7
4.521118503032584E-7
4.793838531677894E-7
5.040045092650831E-7
5.244744540714452E-7
5.399209216317998E-7
1.2181891329218933E-6
1.3866513261791835E-6
1.5213420565197846E-6
1.617370959805232E-6
1.6690242648148232E-6
1.6823136389492661E-6
1.6574582198922035E-6
1.5992018008538063E-6
1.5119614329374757E-6
1.4061923050628377E-6
1.376495076409874E-6
1.4365144338506776E-6
1.4857653727891217E-6
1.522463876062135E-6
1.5435234194789006E-6
1.5491465203446174E-6
1.5352957850373912E-6
1.5030918080101305E-6
1.4507921577405499E-6
1.3797364411811863E-6
1.2888267884974324E-6
1.1848766798042782E-6
4.236735878263377E-7
4.0702912079187866E-7
3.8927760329988353E-7
3.7021874494852876E-7
3.5036098072840935E-7
3.2993985246193084E-7
3.093637958474857E-7
2.89127084462147E-7
2.692921430395489E-7
2.492259088180867E-7
2.3033274347840847E-7
2.546560487892946E-7
2.892691463415813E-7
3.2069873540104884E-7
3.482783758504661E-7
3.7176235518483477E-7
3.8965683509206366E-7
4.0345883307554146E-7
4.114916642326347E-7
4.142367770140257E-7
4.127418237108229E-7
4.0691190818892506E-7
3.968702247970681E-7
2.0385276637040797E-7
1.8959174441291667E-7
1.7591003190903337E-7
1.633066202141732E-7
1.6858159210783142E-7
1.9249291880429314E-7
2.2300673738482698E-7
2.530108412386687E-7
2.826461763541922E-7
3.097764174081711E-7
3.3545941050265385E-7
3.576815415603727E-7
3.7686948179368584E-7
3.919190240154215E-7
4.0348376886377796E-7
3.136144126507192E-6
3.062817811812613E-6
2.984710330713856E-6
2.9033334248488057E-6
2.8167137609644033E-6
2.7256955761464063E-6
2.6308690853686737E-6
2.533770474283018E-6
2.433040480431092E-6
2.3295012931984706E-6
2.225395345864683E-6
2.1176185295248636E-6
2.0089824698080216E-6
1.8979438315586008E-6
1.7868476041728785E-6
1.6744927163065176E-6
1.5635930963440285E-6
2.3171961644166547E-7
2.092589344744862E-7
1.8475597418279572E-7
1.585716713461634E-7
1.8893588496343931E-6
1.8190858296557715E-6
1.74955663209962E-6
1.681586110232435E-6
1.6149300476606084E-6
1.5500416327076577E-6
1.4857157933410494E-6
1.423292192118057E-6
1.3610249405885427E-6
1.3004834978559126E-6
1.2419568525094851E-6
1.1839454277173288E-6
1.1268573904751075E-6
1.0715960566215512E-6
1.0173933340729426E-6
9.645713249235164E-7
9.132911748218877E-7
8.629866821698375E-7
8.141312470021548E-7
7.676428849576802E-7
7.21322483744667E-7
6.772301073258444E-7
6.344641368948174E-7
5.936308558205796E-7
5.539009056021258E-7
5.158120323667354E-7
4.79175702094313E-7
4.443734217677697E-7
4.1123395948671024E-7
3.7938051238776846E-7
3.4983191993534913E-7
2.7497327485817836E-7
2.581562293228469E-7
2.568072712529501E-7
2.9265630593912996E-7
3.3228589738566655E-7
3.750319400300752E-7
4.1876239939447446E-7
4.674357706953513E-7
5.170582400197535E-7
5.712485661589063E-7
1.6325359763800307E-6
1.5271410252056962E-6
1.4253708050281645E-6
1.3287691446163238E-6
1.23462429192639E-6
1.145091749022375E-6
1.0601752944423502E-6
9.7963063681106E-7
9.023221605964854E-7
8.296785645411164E-7
7.612747385655659E-7
6.965832703033927E-7
6.366113434237703E-7
5.801259343849439E-7
5.273743792976509E-7
4.781556024609964E-7
4.326344690410903E-7
3.904462706054795E-7
3.513123720630755E-7
3.1549358777926387E-7
2.824384790802301E-7
2.519453424446798E-7
2.243763344788824E-7
1.9892395166928845E-7
1.758541520875525E-7
1.5506285141652277E-7
1.3605604579578985E-7
1.1904138657317696E-7
1.0379577169941731E-7
8.998643750878497E-8
7.057675822095921E-6
4.974010749057301E-6
2.6937406944936963E-6
1.9720826462504703E-6
2.327097766464654E-6
2.6905741409665314E-6
3.0417643375760772E-6
3.3745974968497588E-6
3.673037861898204E-6
3.929233404305326E-6
4.130718083388185E-6
4.269210458926717E-6
3.382197898401725E-7
4.210413232653724E-7
4.736217415828442E-7
4.830043367327389E-7
4.467244380301241E-7
3.730919766275862E-7
2.75400541434683E-7
1.757766757350561E-7
1.1694334983586477E-6
1.0758668631672364E-6
1.022739366704027E-6
9.780198642187292E-7
7.818537470038905E-7
8.436525181324233E-9
3.885096818640981E-9
1.0631761765977486E-9
7.241753101164859E-6
3.4995500011879224E-6
1.2410192468460718E-6
4.60194460799093E-6
2.209684001249702E-6
2.6563307424633874E-7
2.665565594978833E-8
