%%MatrixMarket matrix array complex general
%
1000 1
6.432297196855078E-1 -6.435861874084261E-1
9.094082932407606E-1 -9.104193192191105E-1
1.1134831805042822 -1.1153556018962127
1.2854007223697317 -1.2882522203602391
1.4367104149707761 -1.4407003894858463
1.5733851486778898 -1.578652245188149
1.6989950986050462 -1.705620638005093
1.8157507685105168 -1.8239769919436428
1.9254079557500745 -1.9350465231537446
2.0289921801967656 -2.040282243444721
2.127448916367824 -2.1404633854060044
2.221600952398495 -2.2361409754464066
2.3114849162909747 -2.3282131376583535
2.3980641996870924 -2.4167703806306937
2.4816307427402715 -2.50226745516458
2.5622466990642403 -2.585092761234189
2.6403612201678874 -2.6653742203249005
2.7161570618377704 -2.7433764505807474
2.789716124589765 -2.819341258018808
2.861192513461362 -2.8935331548670824
2.9307047006450784 -2.966326589184552
2.999639543677176 -3.0362686680295408
3.066139804320722 -3.1054060039036058
3.1310731726370533 -3.173102711759947
3.1947211853927477 -3.2394885645442817
3.256996282858846 -3.3046537939230736
3.3183931232087893 -3.368458762772916
3.3784308205765297 -3.4313072514674254
3.4359894237833837 -3.4925861013920283
3.4942630948238094 -3.553166539533443
3.5517434544790785 -3.613265870474678
3.6065362712654543 -3.6717364421433114
3.661255343495499 -3.729721245415383
3.716008812977817 -3.787368323865285
3.7698548365994684 -3.8430269195136657
3.821154515101463 -3.899117501795153
3.873738635831574 -3.9541043199521613
3.923427020039864 -4.008931099994247
3.9747884927900543 -4.061792500984626
4.0217635624211105 -4.114551999884786
4.073134578799947 -4.166552729052238
4.121519299611351 -4.2215799602353234
4.169039616137362 -4.268932903503838
4.21264041239187 -4.319838653930962
4.262397097164322 -4.370349352550508
4.308060405350038 -4.418876038379922
4.352749179523196 -4.4682911227878375
4.3978485259357525 -4.517080721448042
4.442002535874902 -4.564902519621048
4.485861493107162 -4.61256010082586
4.530517502136162 -4.665026313882961
4.573838835491096 -4.706494462233343
4.6156885427447385 -4.753598486870506
4.6632039843966275 -4.800932316534914
4.702413852902735 -4.845764404343189
4.745727142922511 -4.8914611972398125
4.781431193819633 -4.935069693044662
4.8218002083207265 -4.979642803442651
4.861309692619938 -5.024505803765767
4.899597845078276 -5.0680645375604065
4.940767444804917 -5.11093935813154
4.979738040943122 -5.154091849434911
5.0156644675029325 -5.19559260415918
5.053878582382123 -5.238660831563026
5.092766022484065 -5.2829690597016565
5.127101356145024 -5.326107008390428
5.160526895492751 -5.369071474310516
5.197067505612554 -5.410962458693364
5.242984391082554 -5.447895513014537
5.273680440932898 -5.490766049194336
5.316384412599432 -5.529359261925018
5.351506001951589 -5.5697047406884
5.387900269476788 -5.6104272191410365
5.422266899380225 -5.649858790207767
5.447319493484376 -5.692153359856752
5.480358511625641 -5.725458473829859
5.532486968773406 -5.763815075294938
5.558313662447831 -5.805192784896214
5.594509983937604 -5.845948121334306
5.625032687542208 -5.884198256827875
5.661499512710555 -5.9246472016392815
5.700018933155501 -5.961871949643766
5.728083548968534 -5.998247020202416
5.758339011624279 -6.035645233792933
5.79336650151032 -6.073819445568473
5.825742036152723 -6.110655999887033
5.857451117100551 -6.14824823554301
5.889655659850137 -6.1845986229322225
5.909175533188072 -6.2265938559425305
5.94026927566155 -6.263782617808069
5.973516499304019 -6.300227045506891
6.015618566361673 -6.331532340884125
6.0447568987913165 -6.366442967317501
6.075788672020244 -6.40229942019273
6.107152392148288 -6.438826160673862
6.129926569335536 -6.455406070708184
6.183218811046765 -6.523742098775068
6.190488625894704 -6.53247796134095
6.2263776992517235 -6.581194818719877
6.259505038941677 -6.61589789219049
6.287167705667694 -6.650336565655029
6.3167628211172735 -6.684985659218274
6.345948938881078 -6.719351175488955
6.374695418482952 -6.753809070329016
6.4036745406445785 -6.78836793149258
6.433654423436718 -6.823532020437297
6.4428990797655326 -6.834569680866316
6.48852094260112 -6.890813408919729
6.51085209706009 -6.926533464669962
6.549892652518266 -6.956512167880277
6.578480007690539 -6.989763550552608
6.607994205229058 -7.022363907546955
6.635986085088199 -7.0553970729738635
6.646287690104325 -7.095844110883702
6.677648454130844 -7.127268599962763
6.709357203964841 -7.158457111720582
6.739622526312569 -7.18983611073121
6.763578163539394 -7.222478667349581
6.7900055800713295 -7.25449517804179
6.798222159511589 -7.292481762363996
6.840323828999381 -7.32129761286942
6.865267857739233 -7.3540264806819335
6.890294274407406 -7.386343666330061
6.915766018045462 -7.418112349843382
6.938940207528427 -7.450596135076871
6.961251242166626 -7.482903808824359
6.995534902226403 -7.509761702805836
6.989658079796045 -7.547825441664322
7.027976443065631 -7.575463051937766
7.04707405468351 -7.610948627634665
7.097113796663449 -7.640739794610239
7.12481580124166 -7.670430566149465
7.129749766280634 -7.708279580003279
7.147024323444591 -7.739290782530566
7.171479143682083 -7.7682973435263625
7.22440852780722 -7.79380952569063
7.247226979061385 -7.821823769114026
7.268807368065975 -7.854329436893356
7.296110514244624 -7.883922891098096
7.319430478184336 -7.917899924222308
7.325736975322302 -7.918011462702423
7.3690997729509125 -7.975492930827828
7.395296575992754 -8.005638084131363
7.417057952352174 -8.038107802435798
7.4458558063956195 -8.063568443446655
7.4618579298726795 -8.08893263049547
7.487556596266989 -8.126077226918127
7.5001041794814265 -8.158791894643057
7.517143532607411 -8.191030231708643
7.543421249662947 -8.218783647739867
7.574856084108764 -8.245974074171613
7.601448255958696 -8.275415287171473
7.625922924569782 -8.302462288558122
7.624862968061496 -8.321433342160992
7.660232673311146 -8.354595501102011
7.711894773641101 -8.405965472044254
7.672417952813693 -8.437355716249245
7.745978763918138 -8.450661908365934
7.762603038217345 -8.478954616899973
7.790640619887464 -8.501566276098528
7.771109152920897 -8.531334831437308
7.807652898130444 -8.555910345035002
7.8505302011624645 -8.564675952629736
7.819597935313602 -8.607907769306578
7.873574111156014 -8.654364974288919
7.911203137468472 -8.680023444515445
7.9104473256487315 -8.706528035232889
7.92681290954099 -8.734201701542661
7.977452687627693 -8.76876738438613
7.993082812531168 -8.80015615750364
8.02182359800116 -8.822747627844443
8.013939763937135 -8.861723554821728
8.04039607553457 -8.888675635507335
8.06716667904229 -8.915236101314898
8.093679959244977 -8.941591708348474
8.11795228971614 -8.968166310890268
8.10766946047036 -9.003669142907317
8.16775183159192 -9.017587369208398
8.176649773070967 -9.049503646330539
8.164665952449678 -9.017758756254672
8.229440349331933 -9.09922664137856
8.249332793878029 -9.129358067839679
8.25555689541701 -9.162170139198832
8.292975924857432 -9.183261499077117
8.32749990913388 -9.222292440275977
8.323077930081494 -9.238859012802374
8.324474165338259 -9.284718210882469
8.340784806856052 -9.30861273508259
8.328569002186093 -9.35936165337478
8.392334436481836 -9.358438200285468
8.431545266974913 -9.377219314307334
8.391991129179825 -9.431992834021608
8.422815953434224 -9.451042463554874
8.45374919884771 -9.470758288613006
8.47126983018886 -9.499286026240311
8.4854756494632 -9.529965782508722
8.488034837341353 -9.569776569306796
8.566462377779006 -9.564319762347942
8.581582840189133 -9.592104391614944
8.594540370799656 -9.62073628991099
8.605112429242112 -9.650670203776668
8.613779271929724 -9.682140029397615
8.60090792795427 -9.711430708686759
8.673113633380737 -9.729016952251095
8.686211410339569 -9.758141920061327
8.699179974288809 -9.787267958781008
8.713017837178636 -9.815847316387448
8.728369056892998 -9.843481691303896
8.749214821889321 -9.879220325067013
8.754665512869275 -9.915934028860432
8.763490885883185 -9.950482786195073
8.775918595406194 -9.982442646960218
8.84860144537075 -9.961844718435461
8.833367725574064 -9.973239464484966
8.812590186843298 -1.0045820020867058E1
8.802578796174485 -1.0125368834282046E1
8.915263892302914 -1.006848329600487E1
8.921099064594888 -1.0058539312656784E1
8.940376090870512 -1.0087267527799627E1
8.950829344347426 -1.0129061485319578E1
8.926944986716068 -1.0246809698414575E1
9.003389272132733 -1.0188546800569934E1
9.074569342460991 -1.0242728563996495E1
9.057051655562013 -1.027060822723321E1
9.0743192395346 -1.0272984457092443E1
9.083425155636892 -1.0291331482353845E1
9.103632954555017 -1.0297626879016736E1
9.120328477493711 -1.0314380058160447E1
9.124814531517227 -1.0361659899998942E1
9.155612857436063 -1.0393070472272397E1
9.181905899172977 -1.0425241222750667E1
9.19986140588057 -1.04507713242274E1
9.221334009170596 -1.0478022540066979E1
9.236214525810167 -1.05603457282435E1
9.238932877218174 -1.0524862020629449E1
9.24302208997977 -1.0563761749584158E1
9.271523444792301 -1.0578116713621469E1
9.21283588562042 -1.0675275513428627E1
9.303349849672577 -1.0630280973606428E1
9.322726473275676 -1.0653632140275088E1
9.263760903938868 -1.0719232767925096E1
9.32513113109384 -1.0731646733525798E1
9.318294617186208 -1.0777780694269392E1
9.367787720494878 -1.0770241271405936E1
9.388801057558277 -1.0792097472016769E1
9.407656712990704 -1.0815343456127565E1
9.40815359197398 -1.0848317852122369E1
9.43901709353655 -1.086214332140987E1
9.460065852030462 -1.088778179663256E1
9.47641599014593 -1.091270733696772E1
9.492783074447846 -1.0937585446471852E1
9.509173889799243 -1.0962414452633475E1
9.525593723809157 -1.0987189204895545E1
9.542046649322701 -1.101190936302736E1
9.558544597869627 -1.1036564478792473E1
9.575088896474009 -1.1061152970303986E1
9.591683505153478 -1.1085665434379338E1
9.608333118992135 -1.1110095977213339E1
9.625044255359334 -1.1134432806816033E1
9.641813266194024 -1.1158669453025013E1
9.658642908664737 -1.1182793956272086E1
9.675514713265525 -1.1206804014214143E1
9.69242722772738 -1.123068786652854E1
9.67835141969217 -1.1265834556137525E1
9.707875492094974 -1.1279719846567355E1
9.69050361862993 -1.1323736389413527E1
9.707687596366124 -1.135226048730866E1
9.730673766387419 -1.1364324922637206E1
9.724445519221108 -1.1431876051693106E1
9.755567300811578 -1.142088129906704E1
9.811631356499797 -1.1425246331182219E1
9.84068605818316 -1.1437842755254227E1
9.890183141644533 -1.146563471939903E1
9.79215208682898 -1.141704171058616E1
9.882670719253499 -1.1508250345593419E1
9.803889476492355 -1.1549773478516407E1
9.83565677169978 -1.1564405605020557E1
9.869677500834577 -1.1598901724764243E1
9.909003467598588 -1.1616283326502266E1
9.912044730069155 -1.1637249756088854E1
9.926594238990356 -1.1658735963887969E1
9.944759399198572 -1.1686365650403562E1
9.995629169052199 -1.1715758616634902E1
1.0008479982432572E1 -1.174112816845882E1
1.0023715788835126E1 -1.176515514761845E1
9.938855058611804 -1.1785936178361235E1
1.0055953325480097E1 -1.1810722206543254E1
9.928074134888531 -1.1844059630269507E1
1.0007368331745749E1 -1.1870121394435989E1
1.0059600092237115E1 -1.189042945221237E1
1.0071396478173035E1 -1.19145148460778E1
1.0078342169573444E1 -1.1938785857585245E1
1.0086398872669118E1 -1.1962762524091037E1
1.0095210682605693E1 -1.1986541887780827E1
1.0095546902250334E1 -1.201046239126056E1
1.0093757850937061E1 -1.2038269061501403E1
1.0150957633517613E1 -1.2054158701435437E1
1.0159957582662466E1 -1.2080923057226883E1
1.0176958375753903E1 -1.210587008802456E1
1.0198811141425539E1 -1.2129020078740337E1
1.0144643847830734E1 -1.212481852724842E1
1.0169821393105249E1 -1.2149954670065158E1
1.0202184958667392E1 -1.2173566089099765E1
1.0269496304628285E1 -1.2221232697227016E1
1.028486252636691E1 -1.2244608938070598E1
1.0314265504013221E1 -1.2263640458000152E1
1.0308752101965714E1 -1.229015482106434E1
1.031294361302875E1 -1.2338710286279156E1
1.0270519779682042E1 -1.2312634550177822E1
1.0343470325608239E1 -1.2372513327374442E1
1.0373981445669925E1 -1.238706613510623E1
1.0348919678204968E1 -1.2441728106763614E1
1.0352208586489352E1 -1.2500403807762316E1
1.0340349760579285E1 -1.260042838975463E1
1.0420326419481388E1 -1.2501594552775993E1
1.0466702776122474E1 -1.2475529721228453E1
1.031256968508287E1 -1.2315269276486758E1
1.045224300002059E1 -1.2528509612468483E1
1.0444720629649195E1 -1.2529296928735386E1
1.0415482774300118E1 -1.2564654132349041E1
1.0520121398472176E1 -1.2609243938873375E1
1.0527272439462052E1 -1.2633494064082317E1
1.0482717876766909E1 -1.2663303389141454E1
1.0506708191004494E1 -1.268132759694192E1
1.0446443914129773E1 -1.2706397592672202E1
1.0499565748512191E1 -1.2730991767489344E1
1.051358589881641E1 -1.2754914845738602E1
1.0517280507509494E1 -1.2778762681816673E1
1.0526331717231733E1 -1.2802681089853015E1
1.0541036319539575E1 -1.2826781925267568E1
1.055003291605258E1 -1.284901720890297E1
1.0564180492885173E1 -1.2867173650537623E1
1.068240539943449E1 -1.2884158478174028E1
1.0623448740376032E1 -1.2983340329081624E1
1.0625528825223947E1 -1.3032102241641919E1
1.0623479039235301E1 -1.3087999477563653E1
1.073686372111203E1 -1.2971819717193485E1
1.0717608613548729E1 -1.3021192712044291E1
1.0699448510909281E1 -1.3080052377948721E1
1.0703450736556796E1 -1.3128253971772295E1
1.0726898953268453E1 -1.3132962831997427E1
1.0733957027666024E1 -1.3163989395397826E1
1.0742157449317927E1 -1.3194137576336164E1
1.0750924188512707E1 -1.3224038880111552E1
1.075242765986339E1 -1.3269021796394924E1
1.074659614845388E1 -1.33382863014283E1
1.0757364810867982E1 -1.336138381433269E1
1.0775058540457858E1 -1.3373895169976118E1
1.0793355114335998E1 -1.3386813088444836E1
1.0808180269428124E1 -1.3403822077988668E1
1.0822920114381363E1 -1.3420949505987988E1
1.0831854464740609E1 -1.3453029378333088E1
1.08411177599156E1 -1.3484562807242193E1
1.0851186434595217E1 -1.3514093459756783E1
1.0862055933535563E1 -1.3541269432904071E1
1.0873661829590743E1 -1.3566062456636095E1
1.0886061415111717E1 -1.3588294372642324E1
1.0899175676933321E1 -1.3608149358727276E1
1.0911480390628723E1 -1.3630805755534636E1
1.0912975582124375E1 -1.3694138042126026E1
1.104485549239969E1 -1.3511293101783656E1
1.105232924226148E1 -1.3536728521548644E1
1.1059512703600602E1 -1.3562715608689933E1
1.1066497052482845E1 -1.3589230559070414E1
1.1073375495324184E1 -1.3616226021407181E1
1.1019156101679384E1 -1.3785512507959158E1
1.1027908852613933E1 -1.3772123379224709E1
1.1021606414477937E1 -1.385156919401888E1
1.1029769939615996E1 -1.3887878543880818E1
1.1046746823004085E1 -1.3895706768844926E1
1.1061391545905522E1 -1.3909724763561922E1
1.1075256732920439E1 -1.3925725657156914E1
1.1088922522105483E1 -1.3942474394903279E1
1.1101283823285527E1 -1.3963504562797043E1
1.1111305994122446E1 -1.3992322268678025E1
1.1121716647865805E1 -1.40199545573301E1
1.1132457669417072E1 -1.4046411137449347E1
1.1143497603812559E1 -1.4071774853356594E1
1.115479552186618E1 -1.4096100911774244E1
1.1166322888567041E1 -1.4119380896960855E1
1.1178062438901174E1 -1.4141800252243897E1
1.119001052689775E1 -1.4163236848937483E1
1.1202126681972896E1 -1.41839342340486E1
1.121443092197465E1 -1.4203823014011295E1
1.122690760437341E1 -1.422299442692593E1
1.1236443698625353E1 -1.4254458825015362E1
1.1243647309587509E1 -1.4299054903607185E1
1.1251810813920965E1 -1.4343645924380937E1
1.1376899488093114E1 -1.4134113917246795E1
1.1385869824556243E1 -1.4157901044668078E1
1.1394777158270129E1 -1.4181824096867421E1
1.1403664785218037E1 -1.4205848027228381E1
1.14121811133633E1 -1.423017140076054E1
1.1420626540587358E1 -1.4254566151943097E1
1.1428960385561663E1 -1.4279153399517126E1
1.1437296062253358E1 -1.4303844047691241E1
1.1445560181910938E1 -1.4328709039493841E1
1.1453923844884782E1 -1.435358235581289E1
1.1462218719256928E1 -1.4378637288261666E1
1.1470560055144894E1 -1.4403749842210221E1
1.14789124220196E1 -1.4428963899928148E1
1.1487341026452766E1 -1.4454198180708541E1
1.1495774530833856E1 -1.4479538506035496E1
1.1504176348622202E1 -1.4505038222172699E1
1.1512660512875808E1 -1.4530549503726068E1
1.1521175125115056E1 -1.4556140672247345E1
1.1529745665537439E1 -1.4581771315871611E1
1.1538364262380284E1 -1.46074440118614E1
1.1547004859533038E1 -1.4633222637481532E1
1.1563656524550925E1 -1.4660003330358983E1
1.1577193952582238E1 -1.4677460265742601E1
1.1590701271941649E1 -1.4695083310072805E1
1.1604146149573301E1 -1.47128993381492E1
1.161784716385363E1 -1.473044311985895E1
1.163110160590098E1 -1.4748729555802347E1
1.16446843363277E1 -1.4766652962368441E1
1.1656608482980221E1 -1.4786845659857672E1
1.1666372398466995E1 -1.4809900703831621E1
1.1676295291235789E1 -1.4832734925479961E1
1.1686274159493042E1 -1.4855486318969595E1
1.1696347756158998E1 -1.4878094842298747E1
1.1707692404068615E1 -1.4911878419391678E1
1.1717633917412199E1 -1.4934828284148574E1
1.1727585186230545E1 -1.4957739840184837E1
1.173764294272201E1 -1.4980448190376048E1
1.1747666661204697E1 -1.5003164410869156E1
1.1757768604609202E1 -1.5025731552942263E1
1.1767874841800205E1 -1.504823694403243E1
1.1777978088055796E1 -1.5070717817238775E1
1.1788105714429408E1 -1.509311551162141E1
1.1798287604599775E1 -1.5115401574933962E1
1.1808453316094234E1 -1.5137652173202785E1
1.181865541982999E1 -1.5159805286741777E1
1.1828853415994855E1 -1.5181935174134654E1
1.1839102040944807E1 -1.5203929604296434E1
1.1849330741444811E1 -1.5225912839736191E1
1.1859595152650087E1 -1.5247800666273616E1
1.1869865303900701E1 -1.526962616367473E1
1.1880117946092316E1 -1.529145089851767E1
1.1890413884649657E1 -1.5313144152224988E1
1.1900711811835347E1 -1.533480565478591E1
1.1911016227702914E1 -1.5356406399336173E1
1.1921335239390585E1 -1.537794336937511E1
1.193164638870111E1 -1.539944868353657E1
1.1941941615803232E1 -1.5420931913466895E1
1.1952270372975606E1 -1.5442317487981896E1
1.1962618129676507E1 -1.54636267052394E1
1.1972930931061654E1 -1.5484940970032593E1
1.1983260392115403E1 -1.5506198993218803E1
1.1993608013101843E1 -1.552737167039617E1
1.2003958279237894E1 -1.5548495602587058E1
1.201431958270823E1 -1.5569557031908788E1
1.2024667398765995E1 -1.559060643430457E1
1.203503017664948E1 -1.5611561156226793E1
1.2045397348771708E1 -1.5632473062845838E1
1.2055730806588956E1 -1.565341730388074E1
1.2066129851565735E1 -1.5674186134487014E1
1.2076474233594265E1 -1.569500872313951E1
1.2086855195600897E1 -1.5715717855192066E1
1.2097228459897108E1 -1.5736399545281056E1
1.2107616448263492E1 -1.5757008977161854E1
1.2117973832103148E1 -1.577763341037767E1
1.2128392094771076E1 -1.5798103040444857E1
1.2138760326082684E1 -1.5818611293917977E1
1.214914141021317E1 -1.5839074874151537E1
1.2159558767997515E1 -1.585939427079885E1
1.2169973277032554E1 -1.5879697824471547E1
1.2180383112207116E1 -1.5899967082208788E1
1.2190785223049357E1 -1.5920197759421075E1
1.2201210452420844E1 -1.594035372103417E1
1.2211660596687391E1 -1.5960425685559926E1
1.2222079494487511E1 -1.598049758823115E1
1.2232532014170143E1 -1.600048686222022E1
1.2242989123678244E1 -1.602042317735156E1
1.2252980630290248E1 -1.6029434832488608E1
1.2263393008304046E1 -1.6049604268201854E1
1.227386064343803E1 -1.6069666659480696E1
1.2284329150840247E1 -1.608970462672847E1
1.2294883198159535E1 -1.6109589533632054E1
1.2304140854497295E1 -1.613139112745388E1
1.231205707877409E1 -1.6155244014807106E1
1.2319973718986098E1 -1.6179162748075782E1
1.2327832460307214E1 -1.6203267529189038E1
1.2335790853058144E1 -1.6227285109635282E1
1.2343634839222881E1 -1.6251587837168348E1
1.2351478943956824E1 -1.627599615086142E1
1.2359488217907078E1 -1.6300185537204303E1
1.2361957366333694E1 -1.632139288321074E1
1.2373101932702209E1 -1.6339254862913812E1
1.238425670195566E1 -1.6357129858378347E1
1.2395437168904932E1 -1.6375014452554577E1
1.2406593953130455E1 -1.639298875676159E1
1.2417782532101658E1 -1.641095244727792E1
1.2428996182763315E1 -1.642892091983988E1
1.2440165825661428E1 -1.6447019902439404E1
1.2451347901521205E1 -1.6465147504770748E1
1.2462537744766657E1 -1.648330789105768E1
1.247372576279812E1 -1.6501516005823785E1
1.248490215148305E1 -1.6519796234461506E1
1.2496100391719915E1 -1.6538096745954473E1
1.2507266397888966E1 -1.6556493036632578E1
1.2518448273827095E1 -1.65749068551477E1
1.2529648579863084E1 -1.659335956243237E1
1.2540797715662531E1 -1.661192017681149E1
1.2551898077257052E1 -1.663059420964711E1
1.2563042096249065E1 -1.664926151645638E1
1.257419407328139E1 -1.6667974772420596E1
1.2585279459064754E1 -1.6686811605712013E1
1.2596140212181176E1 -1.6705834956504297E1
1.2606880882622812E1 -1.6724978850391842E1
1.2617596989328696E1 -1.674419040409163E1
1.2556659831184879E1 -1.7001564676158328E1
1.256567950066828E1 -1.7008386852882477E1
1.2575005026411246E1 -1.701524646230753E1
1.2584649255832085E1 -1.702185256412936E1
1.2594661794426813E1 -1.7028343513829558E1
1.2605043986761364E1 -1.7034962806686096E1
1.2615801948993992E1 -1.7041914156984483E1
1.2625276326808608E1 -1.7060483233756813E1
1.2634285844599766E1 -1.708276903245291E1
1.2665637658109013E1 -1.7014761534577694E1
1.267729891267236E1 -1.7029551955659173E1
1.2689018301873459E1 -1.7044556167419184E1
1.2700887274351503E1 -1.7059569627231923E1
1.271288790793449E1 -1.7074649679457128E1
1.272491275292703E1 -1.7090012020029658E1
1.2737067873695027E1 -1.7105464962027423E1
1.2749240927200251E1 -1.7121190519992766E1
1.2761088166841615E1 -1.7137379149383182E1
1.277282512196637E1 -1.7153942940885894E1
1.2784611252845814E1 -1.717067580902728E1
1.279635306171327E1 -1.718769847582314E1
1.2808049112166445E1 -1.720500338779885E1
1.2819816673722624E1 -1.7222448892552663E1
1.2765126618021586E1 -1.746743108736236E1
1.2773551873727586E1 -1.746277335193607E1
1.278320252739189E1 -1.7458194795024152E1
1.2794153776240064E1 -1.7453960287996956E1
1.2803871358387477E1 -1.746793807495508E1
1.2812574640055296E1 -1.749088183706295E1
1.282141793344683E1 -1.7512761703194396E1
1.2830390223028978E1 -1.753357236991857E1
1.2839532034922982E1 -1.7553136452949275E1
1.2848766845662112E1 -1.7571715609572784E1
1.2858136023198533E1 -1.758923799793854E1
1.2867636391536736E1 -1.7605747180612422E1
1.2877285440369725E1 -1.7621305417787894E1
1.2887100210044954E1 -1.763604792033028E1
1.2896607036625818E1 -1.7652506265417244E1
1.2904785615952829E1 -1.7675666193083686E1
1.2913007351987513E1 -1.7698570354034338E1
1.2920916401366364E1 -1.7722104881249923E1
1.292811445407345E1 -1.7747296012718216E1
1.2935660132307504E1 -1.7771082822828713E1
1.2943538409634474E1 -1.7793090087248295E1
1.295176332964169E1 -1.7812769462037846E1
1.2963767534297258E1 -1.7837221152056728E1
1.297311524974769E1 -1.7849015498908784E1
1.2980507947665068E1 -1.7849187730776976E1
1.2993121087934727E1 -1.785088383321785E1
1.300881817874365E1 -1.7847475136604064E1
1.3029397853577937E1 -1.7839537335757523E1
1.3053326947811705E1 -1.7832924594849903E1
1.3016761385484886E1 -1.7994371640250286E1
1.3030137853847583E1 -1.7990815634283678E1
1.3049115816772732E1 -1.7981478277540294E1
1.3201710143383949E1 -1.8012740710845478E1
1.297048876954272E1 -1.7933766286849853E1
1.3018690720851238E1 -1.7957549455761473E1
1.3024634665677809E1 -1.7981954693591547E1
1.2925628484602873E1 -1.7981511217828185E1
1.3122604458840398E1 -1.801455676841983E1
1.310851768468589E1 -1.8039665575263363E1
1.309759226502665E1 -1.8062056860847374E1
1.308808152284566E1 -1.8084484418673913E1
1.3104866669780257E1 -1.81045198190988E1
1.3112331911912603E1 -1.8125062801374455E1
1.3119454743571032E1 -1.8145614960949093E1
1.3126123548389105E1 -1.816618500551274E1
1.3132261505922022E1 -1.8186767220046693E1
1.3152960215404674E1 -1.8205500027571798E1
1.31650701420391E1 -1.822567383454327E1
1.3177327550610485E1 -1.8245758931677518E1
1.3189666912994495E1 -1.826574798813892E1
1.320203892927559E1 -1.8285638037518748E1
1.3214450307677629E1 -1.830541651067321E1
1.3226918547222871E1 -1.8325068558841647E1
1.3239373198283248E1 -1.8344592038019492E1
1.3251821482054718E1 -1.8363971824521332E1
1.3264183915661778E1 -1.8383215072712336E1
1.3276552632772649E1 -1.8402279636352347E1
1.3288796469181994E1 -1.8421188621354865E1
1.3300889435962208E1 -1.843994131003011E1
1.3102263838584946E1 -1.844893284451824E1
1.3130434620597239E1 -1.8475637416094784E1
1.3157725716204018E1 -1.850133465516152E1
1.3185143001284942E1 -1.852618528023826E1
1.3212959064781836E1 -1.855017002026749E1
1.3240987553925374E1 -1.8573123735673555E1
1.3268850327897093E1 -1.8594890640102157E1
1.3296393540959905E1 -1.8615353489504624E1
1.330496210914181E1 -1.8635505092933997E1
1.3309735162924481E1 -1.865563208929539E1
1.3315922342704326E1 -1.867561871562736E1
1.3323614321626737E1 -1.86955028481157E1
1.3332766427691062E1 -1.8715293880202253E1
1.3343306971292007E1 -1.8734987201181912E1
1.3355252719277498E1 -1.8754536743069252E1
1.3364788119112555E1 -1.8774340888927366E1
1.336429754736724E1 -1.8795289891568107E1
1.3361491373843275E1 -1.8816014194730464E1
1.3357426909447875E1 -1.8837462693831E1
1.3407839088353276E1 -1.8851447037067118E1
1.3412723329445283E1 -1.8873875142303522E1
1.342182965652933E1 -1.8895537921902594E1
1.3287047791254732E1 -1.886922592863707E1
1.3477263049358198E1 -1.892315133000578E1
1.3292892283304674E1 -1.890608584381413E1
1.3405641079901564E1 -1.895920908249546E1
1.341907824624289E1 -1.898092733343692E1
1.3401686158117359E1 -1.9003340167208794E1
1.3438563793426365E1 -1.901305413212079E1
1.3515676968103167E1 -1.9037293463246595E1
1.3552118459495837E1 -1.904774953882737E1
1.3457237663036556E1 -1.8979065457746398E1
1.3468992004683038E1 -1.913025644828829E1
1.3573294413773835E1 -1.913363566658818E1
1.3585621878537532E1 -1.912862349693029E1
1.3573855398189963E1 -1.9189721081643242E1
1.3568275701716827E1 -1.9262591580824257E1
1.3565706873241696E1 -1.931426468296344E1
1.3578451554993762E1 -1.928902467751777E1
1.3584081430607565E1 -1.9322586001920968E1
1.3593821556641203E1 -1.932646270315495E1
1.360872380736854E1 -1.9302010742691905E1
1.3623701719829622E1 -1.930704490880029E1
1.3615595830312394E1 -1.9353033670562642E1
1.3633161767558416E1 -1.9385425404696015E1
1.3618212147448826E1 -1.938022589770662E1
1.3646704285594403E1 -1.9410664915017122E1
1.3638031540517561E1 -1.9419172050293927E1
1.3599148043576374E1 -1.9445137101974392E1
1.358216694962824E1 -1.945467575812923E1
1.3672144359302191E1 -1.9476471298261053E1
1.367921097799921E1 -1.9496626770662193E1
1.364161321362048E1 -1.950864246966036E1
1.3621796773955678E1 -1.952813441081437E1
1.3627518058696445E1 -1.954827837062283E1
1.3636137804338373E1 -1.9568617916542085E1
1.3639921300825396E1 -1.9588475270480235E1
1.3639425263616806E1 -1.9607734970887947E1
1.3639560039935198E1 -1.9626832078061476E1
1.3647681353381655E1 -1.9647041618893713E1
1.3664218041597548E1 -1.9668343867483415E1
1.3672012891483025E1 -1.9688317858740167E1
1.3740138438016317E1 -1.9722582744195368E1
1.374351983839447E1 -1.9743204223420825E1
1.3748107361285015E1 -1.976323936460071E1
1.3754272143198499E1 -1.9782686945572145E1
1.3762272754365528E1 -1.9801576215113723E1
1.3768690146501218E1 -1.9824429356957307E1
1.3751808417788345E1 -1.9848019126399087E1
1.376607257731982E1 -1.9867216967145218E1
1.3780253988088097E1 -1.9886080639406057E1
1.3791230017572612E1 -1.9905510098667072E1
1.380048679278037E1 -1.9925350979842072E1
1.3809716605774392E1 -1.994516242280662E1
1.3819067293133347E1 -1.996490589117369E1
1.382861779895855E1 -1.9984554501418046E1
1.383843673376212E1 -2.0004075781939182E1
1.3848490167973331E1 -2.002345683798106E1
1.385624656149251E1 -2.0043326659863382E1
1.3853034393677394E1 -2.0065561682978405E1
1.3840996142899254E1 -2.0088786117851996E1
1.3825824932438273E1 -2.011030992595388E1
1.3809327234967132E1 -2.0129743144347348E1
1.3791996089229562E1 -2.014714468693719E1
1.3774017422045265E1 -2.016253238752724E1
1.3756111806210079E1 -2.0176072536469107E1
1.3858783772503612E1 -2.020452937393029E1
1.3877189062482062E1 -2.0224598680308283E1
1.381629833522264E1 -2.0246525641756868E1
1.3817945578737273E1 -2.02659284995605E1
1.382188241889715E1 -2.028547421470787E1
1.3828333254039869E1 -2.0305163845567314E1
1.3837480552472677E1 -2.03249423358517E1
1.3849649312333945E1 -2.0344717901399093E1
1.395891059742829E1 -2.0355679311050018E1
1.3962450557116732E1 -2.037559898348456E1
1.3965320505276534E1 -2.0395846928328357E1
1.3971376367644957E1 -2.0416215159027868E1
1.3982145406314192E1 -2.043627965729908E1
1.3997833531410304E1 -2.04552394198412E1
1.4004824953627386E1 -2.04753312901826E1
1.3994668669292333E1 -2.04999499274314E1
1.400025205143519E1 -2.0521009661060962E1
1.4013976452872216E1 -2.0539313137425555E1
1.4006020463450923E1 -2.0554322857703433E1
1.3999510393483693E1 -2.0577176296395873E1
1.4007656419717097E1 -2.059781846443086E1
1.3937652061478051E1 -2.057194834210449E1
1.3962103572759748E1 -2.0599390070231664E1
1.3941831541882413E1 -2.056160466912556E1
1.3933997390003263E1 -2.052852765564478E1
1.3966278114021348E1 -2.0583867994822473E1
1.4065287014338695E1 -2.071936363818215E1
1.4179749192152306E1 -2.084496257833909E1
1.4231407425175666E1 -2.0887296711119593E1
1.422401512111754E1 -2.091348697988639E1
1.4160512453576118E1 -2.093890082177445E1
1.4181493771296635E1 -2.0984940842995382E1
1.413436304569325E1 -2.088816773447872E1
1.4140026377477971E1 -2.0907182433737965E1
1.414497556822532E1 -2.091223906933998E1
1.4146891071134846E1 -2.094563793568936E1
1.4152599458538843E1 -2.096642941856979E1
1.4160604631953461E1 -2.097844666745465E1
1.41689080444945E1 -2.0991505303864827E1
1.4175064381194845E1 -2.1011001750008152E1
1.417988011634394E1 -2.104005991201964E1
1.4185894833815315E1 -2.1063185062116524E1
1.419247491817135E1 -2.1081331668612545E1
1.4198802581929662E1 -2.110099761125396E1
1.420894353699675E1 -2.108152063873588E1
1.4213167435902104E1 -2.110557115741863E1
1.421805778864207E1 -2.112892862273183E1
1.4223545655095206E1 -2.1151455313608743E1
1.4229531201706564E1 -2.1173149175308684E1
1.4235945235923108E1 -2.1194005539821696E1
1.4237750573127213E1 -2.1317233835174388E1
1.4245566901933904E1 -2.1341811486870228E1
1.4257120424875012E1 -2.125074447629286E1
1.4253337876599039E1 -2.1284595870566164E1
1.4260743659145065E1 -2.1301369743249715E1
1.4268203175264642E1 -2.1318255154595843E1
1.4275576783863015E1 -2.133545172294657E1
1.428206450374468E1 -2.1354193509435536E1
1.4288510424561071E1 -2.137303587516197E1
1.4294933159979164E1 -2.1391925858816567E1
1.4301347218953111E1 -2.1410835576589516E1
1.4307765283784597E1 -2.1429744349276735E1
1.4314189928859816E1 -2.1448636483332354E1
1.4320635783885525E1 -2.1467489978735195E1
1.4327099148791449E1 -2.148631177673968E1
1.4333595693992262E1 -2.1505076783086423E1
1.4340119130797476E1 -2.1523803230323246E1
1.4346671862619617E1 -2.1542485651421472E1
1.4353259009358467E1 -2.1561126553365924E1
1.4359874984626478E1 -2.1579733060026445E1
1.4365157999033608E1 -2.160094495139258E1
1.4369312090185842E1 -2.162462277545696E1
1.4373532708292784E1 -2.1648544770133807E1
1.4256764115503199E1 -2.166232941925875E1
1.426256768624413E1 -2.16822220087211E1
1.4268413802840888E1 -2.1702122831798658E1
1.4274270841174872E1 -2.1722017542943064E1
1.4280176036568486E1 -2.17419268027734E1
1.428611235560778E1 -2.176183170676072E1
1.4292054592952146E1 -2.1781734759633856E1
1.4298031151834621E1 -2.180164205358189E1
1.4304034503365239E1 -2.1821553156220364E1
1.431002187848366E1 -2.184146282009857E1
1.4316044719446136E1 -2.1861373517110035E1
1.432208058043734E1 -2.188128059079733E1
1.4328135243532472E1 -2.190119283144046E1
1.4334183870080944E1 -2.1921101446881995E1
1.4340277499586314E1 -2.1941010622386067E1
1.4346344167611951E1 -2.1960919825635308E1
1.4352430760692151E1 -2.1980825214953967E1
1.4358536884289029E1 -2.200073833467618E1
1.4364630425445654E1 -2.202063951804146E1
1.437074471670885E1 -2.2040547906752586E1
1.4376860221118745E1 -2.2060451035208185E1
1.4382979917297668E1 -2.2080354552883357E1
1.438910629134219E1 -2.2100254506431334E1
1.4395246053442044E1 -2.2120158760847477E1
1.4401372907034915E1 -2.2140053146617465E1
1.4407523526276247E1 -2.2159954280610318E1
1.4413669541708986E1 -2.217985010700858E1
1.4419817283387518E1 -2.2199739597809923E1
1.4425971238648318E1 -2.2219636676853895E1
1.4491484664145998E1 -2.223951008427723E1
1.4497512955951844E1 -2.22593286140171E1
1.4503529770143572E1 -2.227914636382416E1
1.4509550251650056E1 -2.2298962804060785E1
1.4515563583685303E1 -2.2318775759950526E1
1.4521594713225737E1 -2.233858218888059E1
1.4527618232268642E1 -2.235838610629806E1
1.4533632654613589E1 -2.2378185842235965E1
1.4539647547649293E1 -2.2397986596822868E1
1.4545679355358873E1 -2.2417776879282716E1
1.4551698671693341E1 -2.243757042002091E1
1.4555837446899872E1 -2.2457420406701367E1
1.4560022902656069E1 -2.2477264742871384E1
1.4564128942893289E1 -2.2497098047999664E1
1.4568182907993595E1 -2.2516916181135084E1
1.4572238637775348E1 -2.253672508855735E1
1.4576205870764298E1 -2.2556518508418552E1
1.4605925905531612E1 -2.252003450629225E1
1.455006490642482E1 -2.2472321030911694E1
1.4624027946656367E1 -2.2552411257132714E1
1.458811844856213E1 -2.2541155938777738E1
1.4550016432909823E1 -2.252714801594449E1
1.4622298674792358E1 -2.263310980985508E1
1.4612669476010709E1 -2.2649215537318668E1
1.46071035040893E1 -2.266492730230911E1
1.460688382747905E1 -2.268089719206288E1
1.4633681142911845E1 -2.2728045595184266E1
1.4633058624367553E1 -2.274658553952039E1
1.463845602511413E1 -2.2766210349952992E1
1.4648125549983021E1 -2.2786712954995572E1
1.4607552252852228E1 -2.279937255156159E1
1.4593022598527583E1 -2.28125146111388E1
1.471918783588254E1 -2.2863483148358497E1
1.4720171508824347E1 -2.2884816039292986E1
1.472175470549192E1 -2.2905765950462083E1
1.4724238212352894E1 -2.2926285910884186E1
1.4727774503719987E1 -2.2946375863351903E1
1.4732550322411365E1 -2.2966038403979706E1
1.4738613931906736E1 -2.298527660965682E1
1.4647959939799724E1 -2.2990548566068675E1
1.465662355456311E1 -2.301120994884618E1
1.4665967286086536E1 -2.3031914651641006E1
1.4675873469757919E1 -2.3052622587423446E1
1.4686149714689655E1 -2.3073288160911666E1
1.4684425310820737E1 -2.309149738506516E1
1.4676045993434027E1 -2.310744075638715E1
1.4670032893337606E1 -2.312301632750405E1
1.4807576399827536E1 -2.3159370970739502E1
1.481178719526606E1 -2.3179619791017274E1
1.4816365553469696E1 -2.319962716016896E1
1.4821243545301263E1 -2.321943812862999E1
1.4712051257613345E1 -2.322320966547701E1
1.4717506635322376E1 -2.3242735481891405E1
1.472138674205891E1 -2.3261836444294612E1
1.4711126951874919E1 -2.3275956113176278E1
1.4718531447046281E1 -2.3296627327999555E1
1.4738143309695477E1 -2.3321648737402768E1
1.4748000382396487E1 -2.334308646431651E1
1.4754158424449914E1 -2.3363473696560053E1
1.4869505574986903E1 -2.3396724384652572E1
1.4875198911625455E1 -2.3416364402990308E1
1.4881102207800552E1 -2.3435855416444866E1
1.4755197002458996E1 -2.3438262650658405E1
1.4768771848012312E1 -2.346191794655538E1
1.4783124991679996E1 -2.34852381685934E1
1.4798619869108549E1 -2.3508250622415392E1
1.481497898133669E1 -2.3530728879211306E1
1.483207606170218E1 -2.3552517262962063E1
1.4836335758299652E1 -2.35724051826182E1
1.4839204572604292E1 -2.35921058403884E1
1.4842315644845193E1 -2.361179935195746E1
1.4845612761283807E1 -2.3631485111170612E1
1.4849084003562952E1 -2.3651168219066516E1
1.485280967175302E1 -2.3670854128866683E1
1.4856851065543538E1 -2.3690553364044646E1
1.4861034590496715E1 -2.371025164107609E1
1.4865627201965472E1 -2.372998056483995E1
1.495210710577312E1 -2.3754420524978297E1
1.495897591359888E1 -2.3773625976270644E1
1.496652745024559E1 -2.3792424029427615E1
1.4861428602839558E1 -2.3791301071641314E1
1.4883238408569332E1 -2.3817233388919625E1
1.490696042967944E1 -2.38419304179131E1
1.493186988789403E1 -2.3864848976018564E1
1.4956503462905697E1 -2.3885597011526357E1
1.4980451850152305E1 -2.390409510934026E1
1.498947465061129E1 -2.3923337085797424E1
1.4996787586959103E1 -2.39427891988694E1
1.500446653392284E1 -2.3962139400029464E1
1.5012404434108307E1 -2.398138671389867E1
1.5020535950973706E1 -2.4000527493933568E1
1.4993580080476539E1 -2.4019686997025204E1
1.4998883779630518E1 -2.4039595843922033E1
1.500494393543942E1 -2.4059557840525823E1
1.5009039903382565E1 -2.4079411145397838E1
1.501392876831044E1 -2.409931577190862E1
1.5019773413083296E1 -2.4119259389226684E1
1.5026743852626419E1 -2.413921961750746E1
1.5035043327933321E1 -2.415915070850633E1
1.5039244650256732E1 -2.4172836352742458E1
1.5051328714031014E1 -2.4194860022167273E1
1.5065179089582045E1 -2.4216114901844264E1
1.5080198205999745E1 -2.423615017408619E1
1.497086293488524E1 -2.4167921310102372E1
1.4987948796056873E1 -2.4194620267404208E1
1.500667842777752E1 -2.4222608036313968E1
1.5026653303986988E1 -2.4251500077884927E1
1.5046607710800611E1 -2.4280356066467988E1
1.5067284364395606E1 -2.4309577980698595E1
1.5010929603836374E1 -2.4284585083056495E1
1.504007572855168E1 -2.4328821471661943E1
1.506777666619759E1 -2.4369776961285194E1
1.5092176885636038E1 -2.4406353016339285E1
1.5093069882529798E1 -2.4406014451492865E1
1.5119041781727551E1 -2.444304702731387E1
1.5140497710463283E1 -2.4475523988764873E1
1.5156021448065323E1 -2.450313491334071E1
1.5165960392975228E1 -2.452672605565925E1
1.5172180727234629E1 -2.4547730076480065E1
1.5177072542694388E1 -2.4567821346654785E1
1.5181387490109353E1 -2.4587596784637736E1
1.5185647765324244E1 -2.4607645186099955E1
1.519177228278501E1 -2.462970851035612E1
1.5202066504610569E1 -2.4655601894828507E1
1.5217943443945476E1 -2.4685995061701963E1
1.523872339977664E1 -2.4719500749103346E1
1.5263160864339492E1 -2.475472928217245E1
1.5234330459333801E1 -2.4759798943899735E1
1.5258418213004612E1 -2.4792770106524088E1
1.5285434700816964E1 -2.48264703597698E1
1.5315630727958805E1 -2.4860786600195485E1
1.5346821831753159E1 -2.4894318528005183E1
1.5293173587189324E1 -2.4872784358043823E1
1.530734324133482E1 -2.4902654465360722E1
1.5320640845658636E1 -2.4931724737521115E1
1.5333058298947938E1 -2.4960022666753023E1
1.534418346425603E1 -2.4987138845133945E1
1.5353968127094252E1 -2.5013041025551498E1
1.5362227695750708E1 -2.503752372111145E1
1.5369055626744565E1 -2.5060710145956964E1
1.5373828262248123E1 -2.508249458878197E1
1.528271470621581E1 -2.5036303491680016E1
1.5287683110956293E1 -2.50584452363079E1
1.5292521411225376E1 -2.5079685668191964E1
1.5297230020808438E1 -2.5100191356573664E1
1.5301797309812086E1 -2.511997215509856E1
1.5306245559286912E1 -2.5139189861270175E1
1.531076678410787E1 -2.5158916377456904E1
1.531542889452902E1 -2.5179573422808474E1
1.5319926607497724E1 -2.519952248797278E1
1.5319550503409529E1 -2.5192975167239517E1
1.5323801974073335E1 -2.521475087626867E1
1.5328105813289893E1 -2.5236315955060668E1
1.5332434345487982E1 -2.52578176899516E1
1.5336794866866386E1 -2.5279062692398256E1
1.5341171826778329E1 -2.530010003411642E1
1.534555259838026E1 -2.5320951955958833E1
1.5349938251651647E1 -2.534156686230373E1
1.5354325219516172E1 -2.5361919927380782E1
1.535870176075809E1 -2.538205847203549E1
1.5363072705299961E1 -2.540195326766048E1
1.5367435507776243E1 -2.5421611421578856E1
1.5371790911253957E1 -2.5441047738077813E1
1.5376139401004435E1 -2.5460266193460782E1
1.538048468556933E1 -2.547929049000571E1
1.5384829746866304E1 -2.549809465963089E1
1.5389178422734343E1 -2.5516721034045453E1
1.5393538215512836E1 -2.5535185838364512E1
1.539921221718798E1 -2.5590209755704866E1
1.5403342648912245E1 -2.5609071602551836E1
1.5407465354438948E1 -2.5627872791860025E1
1.54115793480996E1 -2.564661583558856E1
1.5415688832934572E1 -2.5665298336898655E1
1.541979692886556E1 -2.5683932073864142E1
1.542390459861989E1 -2.570251918163265E1
1.5428010535503514E1 -2.572105697835876E1
1.5432113073018215E1 -2.5739536426601834E1
1.5436222228615474E1 -2.5757987423549007E1
1.5440333565435338E1 -2.577639344468705E1
1.5444450091399688E1 -2.5794766499399035E1
1.5448568647918425E1 -2.5813084742013498E1
1.5452699151949922E1 -2.5831401414863997E1
1.5456832118489531E1 -2.584966328289504E1
1.5460978922797713E1 -2.5867920322600263E1
1.546512861539437E1 -2.5886142477849674E1
1.546929348337287E1 -2.5904366837903304E1
1.5473463056897613E1 -2.5922536356590395E1
1.5477646501566975E1 -2.5940721410108633E1
1.548184211250826E1 -2.5958892227359367E1
1.5486048865592906E1 -2.597704826038764E1
1.5495146258179732E1 -2.6018658142685034E1
1.5499513763293338E1 -2.6038558522514666E1
1.5503842767406594E1 -2.60583388993542E1
1.5508137025253543E1 -2.607801352389167E1
1.5512392632914828E1 -2.6097574415335266E1
1.5516614745525995E1 -2.6117039694801722E1
1.5520801754710357E1 -2.6136414020804875E1
1.552510299105873E1 -2.615639736936603E1
1.5529480114757122E1 -2.6176772430144855E1
1.5533803908757713E1 -2.6196911332083015E1
1.5538082456399724E1 -2.6216888451683804E1
1.5542316319173368E1 -2.623669794417649E1
1.5536013461592004E1 -2.622800165883732E1
1.5540193144717755E1 -2.6247430937260894E1
1.5544370815145141E1 -2.626684878744195E1
1.5548548962713646E1 -2.6286253271623853E1
1.555272567893188E1 -2.630564506429776E1
1.5593416543853978E1 -2.6418587964900194E1
1.559696404289225E1 -2.6437095602501216E1
1.5600485225551777E1 -2.6455531822015846E1
1.5603974715459705E1 -2.6473914521512913E1
1.5607436284342405E1 -2.6492233891210144E1
1.5610876340967724E1 -2.6510485541834647E1
1.5614284370370845E1 -2.6528692226256315E1
1.5617657281611473E1 -2.6546821634649135E1
1.562101337242029E1 -2.6564911575057167E1
1.5624332785096676E1 -2.658292696112224E1
1.5627630189682275E1 -2.660085561716197E1
1.5630895730128035E1 -2.661873359724865E1
