%%MatrixMarket matrix array complex general
%
1000 1
6.283185307179586 0
9.421633223378398 0
1.256008113957721E1 0
1.5698529055776023E1 0
1.8836976971974835E1 0
2.197542488817365E1 0
2.511387280437246E1 0
2.825232072057127E1 0
3.1390768636770083E1 0
3.45292165529689E1 0
3.7667664469167704E1 0
4.080611238536652E1 0
4.394456030156533E1 0
4.7083008217764146E1 0
5.022145613396295E1 0
5.335990405016177E1 0
5.649835196636058E1 0
5.9636799882559394E1 0
6.277524779875821E1 0
6.591369571495702E1 0
6.905214363115583E1 0
7.219059154735464E1 0
7.532903946355344E1 0
7.846748737975227E1 0
8.160593529595107E1 0
8.47443832121499E1 0
8.78828311283487E1 0
9.102127904454753E1 0
9.415972696074633E1 0
9.729817487694513E1 0
1.0043662279314395E2 0
1.0357507070934275E2 0
1.0671351862554158E2 0
1.0985196654174038E2 0
1.1299041445793921E2 0
1.1612886237413801E2 0
1.1926731029033684E2 0
1.2240575820653564E2 0
1.2554420612273444E2 0
1.2868265403893326E2 0
1.3182110195513206E2 0
1.349595498713309E2 0
1.380979977875297E2 0
1.4123644570372852E2 0
1.4437489361992732E2 0
1.4751334153612615E2 0
1.5065178945232495E2 0
1.5379023736852378E2 0
1.5692868528472258E2 0
1.6006713320092138E2 0
1.632055811171202E2 0
1.66344029033319E2 0
1.6948247694951783E2 0
1.7262092486571663E2 0
1.7575937278191546E2 0
1.7889782069811426E2 0
1.8203626861431306E2 0
1.851747165305119E2 0
1.883131644467107E2 0
1.9145161236290951E2 0
1.9459006027910831E2 0
1.9772850819530714E2 0
2.0086695611150594E2 0
2.0400540402770477E2 0
2.0714385194390357E2 0
2.1028229986010237E2 0
2.134207477763012E2 0
2.165591956925E2 0
2.1969764360869883E2 0
2.2283609152489763E2 0
2.2597453944109645E2 0
2.2911298735729525E2 0
2.3225143527349408E2 0
2.3538988318969288E2 0
2.3852833110589168E2 0
2.416667790220905E2 0
2.448052269382893E2 0
2.4794367485448814E2 0
2.5108212277068694E2 0
2.5422057068688576E2 0
2.5735901860308456E2 0
2.6049746651928336E2 0
2.6363591443548216E2 0
2.6677436235168096E2 0
2.6991281026787976E2 0
2.730512581840786E2 0
2.761897061002774E2 0
2.793281540164762E2 0
2.82466601932675E2 0
2.856050498488738E2 0
2.887434977650727E2 0
2.918819456812715E2 0
2.950203935974703E2 0
2.981588415136691E2 0
3.0129728942986793E2 0
3.0443573734606673E2 0
3.0757418526226553E2 0
3.1071263317846433E2 0
3.1385108109466313E2 0
3.16989529010862E2 0
3.201279769270608E2 0
3.232664248432596E2 0
3.264048727594584E2 0
3.2954332067565724E2 0
3.3268176859185604E2 0
3.3582021650805484E2 0
3.3895866442425364E2 0
3.4209711234045244E2 0
3.452355602566513E2 0
3.483740081728501E2 0
3.515124560890489E2 0
3.546509040052477E2 0
3.577893519214465E2 0
3.6092779983764535E2 0
3.6406624775384415E2 0
3.6720469567004295E2 0
3.7034314358624175E2 0
3.734815915024406E2 0
3.766200394186394E2 0
3.797584873348382E2 0
3.82896935251037E2 0
3.860353831672358E2 0
3.8917383108343466E2 0
3.9231227899963346E2 0
3.9545072691583226E2 0
3.9858917483203106E2 0
4.017276227482299E2 0
4.048660706644287E2 0
4.080045185806275E2 0
4.111429664968263E2 0
4.142814144130251E2 0
4.17419862329224E2 0
4.205583102454228E2 0
4.236967581616216E2 0
4.268352060778204E2 0
4.2997365399401923E2 0
4.3311210191021803E2 0
4.3625054982641683E2 0
4.3938899774261563E2 0
4.4252744565881443E2 0
4.456658935750133E2 0
4.488043414912121E2 0
4.519427894074109E2 0
4.550812373236097E2 0
4.5821968523980854E2 0
4.6135813315600734E2 0
4.6449658107220614E2 0
4.6763502898840494E2 0
4.7077347690460374E2 0
4.739119248208026E2 0
4.770503727370014E2 0
4.801888206532002E2 0
4.83327268569399E2 0
4.864657164855978E2 0
4.8960416440179665E2 0
4.9274261231799545E2 0
4.9588106023419425E2 0
4.9901950815039305E2 0
5.021579560665919E2 0
5.052964039827907E2 0
5.084348518989895E2 0
5.115732998151883E2 0
5.147117477313872E2 0
5.17850195647586E2 0
5.209886435637848E2 0
5.241270914799836E2 0
5.272655393961824E2 0
5.304039873123812E2 0
5.3354243522858E2 0
5.366808831447788E2 0
5.398193310609777E2 0
5.429577789771764E2 0
5.460962268933753E2 0
5.49234674809574E2 0
5.523731227257729E2 0
5.555115706419717E2 0
5.586500185581705E2 0
5.617884664743693E2 0
5.649269143905681E2 0
5.680653623067669E2 0
5.712038102229658E2 0
5.743422581391645E2 0
5.774807060553634E2 0
5.806191539715622E2 0
5.83757601887761E2 0
5.868960498039598E2 0
5.900344977201586E2 0
5.931729456363574E2 0
5.963113935525563E2 0
5.99449841468755E2 0
6.025882893849539E2 0
6.057267373011526E2 0
6.088651852173515E2 0
6.120036331335504E2 0
6.151420810497491E2 0
6.18280528965948E2 0
6.214189768821467E2 0
6.245574247983456E2 0
6.276958727145444E2 0
6.308343206307432E2 0
6.33972768546942E2 0
6.371112164631407E2 0
6.402496643793396E2 0
6.433881122955385E2 0
6.465265602117372E2 0
6.496650081279361E2 0
6.528034560441349E2 0
6.559419039603337E2 0
6.590803518765325E2 0
6.622187997927313E2 0
6.653572477089301E2 0
6.68495695625129E2 0
6.716341435413277E2 0
6.747725914575266E2 0
6.779110393737253E2 0
6.810494872899242E2 0
6.84187935206123E2 0
6.873263831223218E2 0
6.904648310385206E2 0
6.936032789547194E2 0
6.967417268709182E2 0
6.998801747871171E2 0
7.030186227033158E2 0
7.061570706195147E2 0
7.092955185357134E2 0
7.124339664519123E2 0
7.155724143681111E2 0
7.187108622843099E2 0
7.218493102005087E2 0
7.249877581167076E2 0
7.281262060329063E2 0
7.312646539491052E2 0
7.344031018653039E2 0
7.375415497815028E2 0
7.406799976977017E2 0
7.438184456139004E2 0
7.469568935300993E2 0
7.50095341446298E2 0
7.532337893624969E2 0
7.563722372786957E2 0
7.595106851948944E2 0
7.626491331110933E2 0
7.65787581027292E2 0
7.689260289434909E2 0
7.720644768596898E2 0
7.752029247758885E2 0
7.783413726920874E2 0
7.814798206082862E2 0
7.84618268524485E2 0
7.877567164406838E2 0
7.908951643568826E2 0
7.940336122730814E2 0
7.971720601892803E2 0
8.00310508105479E2 0
8.034489560216779E2 0
8.065874039378766E2 0
8.097258518540755E2 0
8.128642997702743E2 0
8.160027476864731E2 0
8.191411956026719E2 0
8.222796435188707E2 0
8.254180914350695E2 0
8.285565393512684E2 0
8.316949872674671E2 0
8.34833435183666E2 0
8.379718830998647E2 0
8.411103310160636E2 0
8.442487789322624E2 0
8.473872268484612E2 0
8.5052567476466E2 0
8.536641226808589E2 0
8.568025705970576E2 0
8.599410185132565E2 0
8.630794664294552E2 0
8.662179143456541E2 0
8.69356362261853E2 0
8.724948101780517E2 0
8.756332580942506E2 0
8.787717060104493E2 0
8.819101539266481E2 0
8.85048601842847E2 0
8.881870497590457E2 0
8.913254976752446E2 0
8.944639455914433E2 0
8.976023935076422E2 0
9.007408414238411E2 0
9.038792893400398E2 0
9.070177372562387E2 0
9.101561851724375E2 0
9.132946330886363E2 0
9.164330810048351E2 0
9.195715289210339E2 0
9.227099768372327E2 0
9.258484247534316E2 0
9.289868726696303E2 0
9.321253205858292E2 0
9.352637685020279E2 0
9.384022164182268E2 0
9.415406643344256E2 0
9.446791122506244E2 0
9.478175601668232E2 0
9.50956008083022E2 0
9.540944559992208E2 0
9.572329039154197E2 0
9.603713518316184E2 0
9.635097997478173E2 0
9.66648247664016E2 0
9.697866955802149E2 0
9.729251434964137E2 0
9.760635914126125E2 0
9.792020393288113E2 0
9.823404872450102E2 0
9.854789351612089E2 0
9.886173830774078E2 0
9.917558309936065E2 0
9.948942789098054E2 0
9.980327268260043E2 0
1.001171174742203E3 0
1.0043096226584018E3 0
1.0074480705746006E3 0
1.0105865184907994E3 0
1.0137249664069983E3 0
1.016863414323197E3 0
1.0200018622393959E3 0
1.0231403101555946E3 0
1.0262787580717936E3 0
1.0294172059879925E3 0
1.032555653904191E3 0
1.03569410182039E3 0
1.0388325497365888E3 0
1.0419709976527877E3 0
1.0451094455689863E3 0
1.0482478934851852E3 0
1.051386341401384E3 0
1.0545247893175829E3 0
1.0576632372337817E3 0
1.0608016851499804E3 0
1.0639401330661792E3 0
1.067078580982378E3 0
1.070217028898577E3 0
1.0733554768147758E3 0
1.0764939247309744E3 0
1.0796323726471733E3 0
1.0827708205633721E3 0
1.085909268479571E3 0
1.0890477163957698E3 0
1.0921861643119685E3 0
1.0953246122281673E3 0
1.0984630601443662E3 0
1.101601508060565E3 0
1.104739955976764E3 0
1.1078784038929625E3 0
1.1110168518091614E3 0
1.1141552997253602E3 0
1.117293747641559E3 0
1.120432195557758E3 0
1.1235706434739566E3 0
1.1267090913901554E3 0
1.1298475393063543E3 0
1.1329859872225531E3 0
1.136124435138752E3 0
1.1392628830549506E3 0
1.1424013309711495E3 0
1.1455397788873483E3 0
1.1486782268035472E3 0
1.151816674719746E3 0
1.154955122635945E3 0
1.1580935705521435E3 0
1.1612320184683424E3 0
1.1643704663845413E3 0
1.1675089143007401E3 0
1.170647362216939E3 0
1.1737858101331376E3 0
1.1769242580493365E3 0
1.1800627059655353E3 0
1.1832011538817342E3 0
1.186339601797933E3 0
1.1894780497141317E3 0
1.1926164976303305E3 0
1.1957549455465294E3 0
1.1988933934627282E3 0
1.202031841378927E3 0
1.2051702892951257E3 0
1.2083087372113246E3 0
1.2114471851275234E3 0
1.2145856330437223E3 0
1.2177240809599211E3 0
1.2208625288761198E3 0
1.2240009767923186E3 0
1.2271394247085175E3 0
1.2302778726247163E3 0
1.2334163205409152E3 0
1.2365547684571138E3 0
1.2396932163733127E3 0
1.2428316642895115E3 0
1.2459701122057104E3 0
1.2491085601219092E3 0
1.2522470080381079E3 0
1.2553854559543067E3 0
1.2585239038705056E3 0
1.2616623517867044E3 0
1.2648007997029033E3 0
1.267939247619102E3 0
1.2710776955353008E3 0
1.2742161434514996E3 0
1.2773545913676985E3 0
1.2804930392838974E3 0
1.2836314872000962E3 0
1.2867699351162948E3 0
1.2899083830324937E3 0
1.2930468309486926E3 0
1.2961852788648914E3 0
1.2993237267810903E3 0
1.302462174697289E3 0
1.3056006226134878E3 0
1.3087390705296866E3 0
1.3118775184458855E3 0
1.3150159663620843E3 0
1.318154414278283E3 0
1.3212928621944818E3 0
1.3244313101106807E3 0
1.3275697580268795E3 0
1.3307082059430784E3 0
1.333846653859277E3 0
1.3369851017754759E3 0
1.3401235496916747E3 0
1.3432619976078736E3 0
1.3464004455240724E3 0
1.349538893440271E3 0
1.35267734135647E3 0
1.3558157892726688E3 0
1.3589542371888676E3 0
1.3620926851050665E3 0
1.3652311330212651E3 0
1.368369580937464E3 0
1.3715080288536628E3 0
1.3746464767698617E3 0
1.3777849246860605E3 0
1.3809233726022592E3 0
1.384061820518458E3 0
1.387200268434657E3 0
1.3903387163508557E3 0
1.3934771642670546E3 0
1.3966156121832532E3 0
1.399754060099452E3 0
1.402892508015651E3 0
1.4060309559318498E3 0
1.4091694038480487E3 0
1.4123078517642473E3 0
1.4154462996804461E3 0
1.418584747596645E3 0
1.4217231955128439E3 0
1.4248616434290427E3 0
1.4280000913452416E3 0
1.4311385392614402E3 0
1.434276987177639E3 0
1.437415435093838E3 0
1.4405538830100368E3 0
1.4436923309262356E3 0
1.4468307788424343E3 0
1.449969226758633E3 0
1.453107674674832E3 0
1.4562461225910308E3 0
1.4593845705072297E3 0
1.4625230184234283E3 0
1.4656614663396272E3 0
1.468799914255826E3 0
1.4719383621720249E3 0
1.4750768100882237E3 0
1.4782152580044224E3 0
1.4813537059206212E3 0
1.48449215383682E3 0
1.487630601753019E3 0
1.4907690496692178E3 0
1.4939074975854164E3 0
1.4970459455016153E3 0
1.5001843934178141E3 0
1.503322841334013E3 0
1.5064612892502118E3 0
1.5095997371664105E3 0
1.5127381850826093E3 0
1.5158766329988082E3 0
1.519015080915007E3 0
1.522153528831206E3 0
1.5252919767474045E3 0
1.5284304246636034E3 0
1.5315688725798022E3 0
1.534707320496001E3 0
1.5378457684122E3 0
1.5409842163283986E3 0
1.5441226642445974E3 0
1.5472611121607963E3 0
1.5503995600769952E3 0
1.553538007993194E3 0
1.5566764559093929E3 0
1.5598149038255915E3 0
1.5629533517417904E3 0
1.5660917996579892E3 0
1.569230247574188E3 0
1.572368695490387E3 0
1.5755071434065856E3 0
1.5786455913227844E3 0
1.5817840392389833E3 0
1.5849224871551821E3 0
1.588060935071381E3 0
1.5911993829875796E3 0
1.5943378309037785E3 0
1.5974762788199773E3 0
1.6006147267361762E3 0
1.603753174652375E3 0
1.6068916225685737E3 0
1.6100300704847725E3 0
1.6131685184009714E3 0
1.6163069663171702E3 0
1.619445414233369E3 0
1.6225838621495677E3 0
1.6257223100657666E3 0
1.6288607579819654E3 0
1.6319992058981643E3 0
1.6351376538143631E3 0
1.6382761017305618E3 0
1.6414145496467606E3 0
1.6445529975629595E3 0
1.6476914454791583E3 0
1.6508298933953572E3 0
1.6539683413115558E3 0
1.6571067892277547E3 0
1.6602452371439535E3 0
1.6633836850601524E3 0
1.6665221329763513E3 0
1.66966058089255E3 0
1.6727990288087487E3 0
1.6759374767249476E3 0
1.6790759246411465E3 0
1.6822143725573453E3 0
1.6853528204735442E3 0
1.6884912683897428E3 0
1.6916297163059417E3 0
1.6947681642221405E3 0
1.6979066121383394E3 0
1.7010450600545382E3 0
1.7041835079707369E3 0
1.7073219558869357E3 0
1.7104604038031346E3 0
1.7135988517193334E3 0
1.7167372996355323E3 0
1.719875747551731E3 0
1.7230141954679298E3 0
1.7261526433841286E3 0
1.7292910913003275E3 0
1.7324295392165263E3 0
1.735567987132725E3 0
1.7387064350489238E3 0
1.7418448829651227E3 0
1.7449833308813215E3 0
1.7481217787975204E3 0
1.751260226713719E3 0
1.7543986746299179E3 0
1.7575371225461167E3 0
1.7606755704623156E3 0
1.7638140183785144E3 0
1.766952466294713E3 0
1.770090914210912E3 0
1.7732293621271108E3 0
1.7763678100433096E3 0
1.7795062579595085E3 0
1.7826447058757071E3 0
1.785783153791906E3 0
1.7889216017081048E3 0
1.7920600496243037E3 0
1.7951984975405026E3 0
1.7983369454567012E3 0
1.8014753933729E3 0
1.804613841289099E3 0
1.8077522892052978E3 0
1.8108907371214966E3 0
1.8140291850376955E3 0
1.817167632953894E3 0
1.820306080870093E3 0
1.8234445287862918E3 0
1.8265829767024907E3 0
1.8297214246186895E3 0
1.8328598725348882E3 0
1.835998320451087E3 0
1.8391367683672859E3 0
1.8422752162834847E3 0
1.8454136641996836E3 0
1.8485521121158822E3 0
1.851690560032081E3 0
1.85482900794828E3 0
1.8579674558644788E3 0
1.8611059037806776E3 0
1.8642443516968763E3 0
1.8673827996130751E3 0
1.870521247529274E3 0
1.8736596954454728E3 0
1.8767981433616717E3 0
1.8799365912778703E3 0
1.8830750391940692E3 0
1.886213487110268E3 0
1.889351935026467E3 0
1.8924903829426657E3 0
1.8956288308588644E3 0
1.8987672787750632E3 0
1.901905726691262E3 0
1.905044174607461E3 0
1.9081826225236598E3 0
1.9113210704398584E3 0
1.9144595183560573E3 0
1.9175979662722561E3 0
1.920736414188455E3 0
1.9238748621046539E3 0
1.9270133100208525E3 0
1.9301517579370513E3 0
1.9332902058532502E3 0
1.936428653769449E3 0
1.939567101685648E3 0
1.9427055496018465E3 0
1.9458439975180454E3 0
1.9489824454342443E3 0
1.952120893350443E3 0
1.955259341266642E3 0
1.9583977891828408E3 0
1.9615362370990395E3 0
1.9646746850152383E3 0
1.9678131329314372E3 0
1.970951580847636E3 0
1.9740900287638349E3 0
1.9772284766800335E3 0
1.9803669245962324E3 0
1.9835053725124312E3 0
1.98664382042863E3 0
1.989782268344829E3 0
1.9929207162610276E3 0
1.9960591641772264E3 0
1.9991976120934253E3 0
2.0023360600096241E3 0
2.005474507925823E3 0
2.0086129558420216E3 0
2.0117514037582205E3 0
2.0148898516744193E3 0
2.0180282995906182E3 0
2.021166747506817E3 0
2.0243051954230157E3 0
2.0274436433392145E3 0
2.0305820912554134E3 0
2.0337205391716122E3 0
2.036858987087811E3 0
2.0399974350040097E3 0
2.0431358829202086E3 0
2.0462743308364074E3 0
2.0494127787526063E3 0
2.052551226668805E3 0
2.055689674585004E3 0
2.058828122501203E3 0
2.0619665704174017E3 0
2.0651050183336006E3 0
2.0682434662497994E3 0
2.0713819141659983E3 0
2.074520362082197E3 0
2.077658809998396E3 0
2.0807972579145944E3 0
2.0839357058307933E3 0
2.087074153746992E3 0
2.090212601663191E3 0
2.09335104957939E3 0
2.0964894974955887E3 0
2.0996279454117876E3 0
2.1027663933279864E3 0
2.1059048412441853E3 0
2.109043289160384E3 0
2.1121817370765825E3 0
2.1153201849927814E3 0
2.1184586329089802E3 0
2.121597080825179E3 0
2.124735528741378E3 0
2.127873976657577E3 0
2.1310124245737757E3 0
2.1341508724899745E3 0
2.1372893204061734E3 0
2.1404277683223722E3 0
2.1435662162385706E3 0
2.1467046641547695E3 0
2.1498431120709683E3 0
2.152981559987167E3 0
2.156120007903366E3 0
2.159258455819565E3 0
2.1623969037357638E3 0
2.1655353516519626E3 0
2.1686737995681615E3 0
2.1718122474843603E3 0
2.174950695400559E3 0
2.1780891433167576E3 0
2.1812275912329565E3 0
2.1843660391491553E3 0
2.187504487065354E3 0
2.190642934981553E3 0
2.193781382897752E3 0
2.1969198308139507E3 0
2.2000582787301496E3 0
2.2031967266463485E3 0
2.2063351745625473E3 0
2.2094736224787457E3 0
2.2126120703949446E3 0
2.2157505183111434E3 0
2.2188889662273423E3 0
2.222027414143541E3 0
2.22516586205974E3 0
2.228304309975939E3 0
2.2314427578921377E3 0
2.2345812058083366E3 0
2.2377196537245354E3 0
2.240858101640734E3 0
2.2439965495569327E3 0
2.2471349974731315E3 0
2.2502734453893304E3 0
2.2534118933055292E3 0
2.256550341221728E3 0
2.259688789137927E3 0
2.262827237054126E3 0
2.2659656849703247E3 0
2.2691041328865235E3 0
2.272242580802722E3 0
2.275381028718921E3 0
2.2785194766351196E3 0
2.2816579245513185E3 0
2.2847963724675174E3 0
2.287934820383716E3 0
2.291073268299915E3 0
2.294211716216114E3 0
2.297350164132313E3 0
2.3004886120485116E3 0
2.3036270599647105E3 0
2.306765507880909E3 0
2.3099039557971078E3 0
2.3130424037133066E3 0
2.3161808516295055E3 0
2.3193192995457043E3 0
2.322457747461903E3 0
2.325596195378102E3 0
2.328734643294301E3 0
2.3318730912104998E3 0
2.3350115391266986E3 0
2.338149987042897E3 0
2.341288434959096E3 0
2.3444268828752947E3 0
2.3475653307914936E3 0
2.3507037787076924E3 0
2.3538422266238913E3 0
2.35698067454009E3 0
2.360119122456289E3 0
2.363257570372488E3 0
2.3663960182886867E3 0
2.369534466204885E3 0
2.372672914121084E3 0
2.375811362037283E3 0
2.3789498099534817E3 0
2.3820882578696805E3 0
2.3852267057858794E3 0
2.3883651537020783E3 0
2.391503601618277E3 0
2.394642049534476E3 0
2.397780497450675E3 0
2.4009189453668732E3 0
2.404057393283072E3 0
2.407195841199271E3 0
2.41033428911547E3 0
2.4134727370316687E3 0
2.4166111849478675E3 0
2.4197496328640664E3 0
2.422888080780265E3 0
2.426026528696464E3 0
2.429164976612663E3 0
2.432303424528862E3 0
2.43544187244506E3 0
2.438580320361259E3 0
2.441718768277458E3 0
2.4448572161936568E3 0
2.4479956641098556E3 0
2.4511341120260545E3 0
2.4542725599422533E3 0
2.457411007858452E3 0
2.460549455774651E3 0
2.46368790369085E3 0
2.4668263516070483E3 0
2.469964799523247E3 0
2.473103247439446E3 0
2.476241695355645E3 0
2.4793801432718437E3 0
2.4825185911880426E3 0
2.4856570391042414E3 0
2.4887954870204403E3 0
2.491933934936639E3 0
2.495072382852838E3 0
2.4982108307690364E3 0
2.5013492786852353E3 0
2.504487726601434E3 0
2.507626174517633E3 0
2.510764622433832E3 0
2.5139030703500307E3 0
2.5170415182662296E3 0
2.5201799661824284E3 0
2.5233184140986273E3 0
2.526456862014826E3 0
2.5295953099310245E3 0
2.5327337578472234E3 0
2.5358722057634222E3 0
2.539010653679621E3 0
2.54214910159582E3 0
2.545287549512019E3 0
2.5484259974282177E3 0
2.5515644453444165E3 0
2.5547028932606154E3 0
2.5578413411768142E3 0
2.560979789093013E3 0
2.5641182370092115E3 0
2.5672566849254104E3 0
2.570395132841609E3 0
2.573533580757808E3 0
2.576672028674007E3 0
2.579810476590206E3 0
2.5829489245064046E3 0
2.5860873724226035E3 0
2.5892258203388024E3 0
2.592364268255001E3 0
2.5955027161711996E3 0
2.5986411640873985E3 0
2.6017796120035973E3 0
2.604918059919796E3 0
2.608056507835995E3 0
2.611194955752194E3 0
2.6143334036683927E3 0
2.6174718515845916E3 0
2.6206102995007905E3 0
2.6237487474169893E3 0
2.6268871953331877E3 0
2.6300256432493866E3 0
2.6331640911655854E3 0
2.6363025390817843E3 0
2.639440986997983E3 0
2.642579434914182E3 0
2.645717882830381E3 0
2.6488563307465797E3 0
2.6519947786627786E3 0
2.6551332265789774E3 0
2.658271674495176E3 0
2.6614101224113747E3 0
2.6645485703275735E3 0
2.6676870182437724E3 0
2.6708254661599713E3 0
2.67396391407617E3 0
2.677102361992369E3 0
2.680240809908568E3 0
2.6833792578247667E3 0
2.6865177057409655E3 0
2.6896561536571644E3 0
2.692794601573363E3 0
2.6959330494895617E3 0
2.6990714974057605E3 0
2.7022099453219594E3 0
2.705348393238158E3 0
2.708486841154357E3 0
2.711625289070556E3 0
2.714763736986755E3 0
2.7179021849029536E3 0
2.7210406328191525E3 0
2.724179080735351E3 0
2.7273175286515498E3 0
2.7304559765677486E3 0
2.7335944244839475E3 0
2.7367328724001463E3 0
2.739871320316345E3 0
2.743009768232544E3 0
2.746148216148743E3 0
2.7492866640649418E3 0
2.7524251119811406E3 0
2.755563559897339E3 0
2.758702007813538E3 0
2.7618404557297367E3 0
2.7649789036459356E3 0
2.7681173515621344E3 0
2.7712557994783333E3 0
2.774394247394532E3 0
2.777532695310731E3 0
2.78067114322693E3 0
2.7838095911431287E3 0
2.786948039059327E3 0
2.790086486975526E3 0
2.793224934891725E3 0
2.7963633828079237E3 0
2.7995018307241226E3 0
2.8026402786403214E3 0
2.8057787265565203E3 0
2.808917174472719E3 0
2.812055622388918E3 0
2.815194070305117E3 0
2.8183325182213152E3 0
2.821470966137514E3 0
2.824609414053713E3 0
2.827747861969912E3 0
2.8308863098861107E3 0
2.8340247578023095E3 0
2.8371632057185084E3 0
2.8403016536347072E3 0
2.843440101550906E3 0
2.846578549467105E3 0
2.849716997383304E3 0
2.852855445299502E3 0
2.855993893215701E3 0
2.8591323411319E3 0
2.862270789048099E3 0
2.8654092369642976E3 0
2.8685476848804965E3 0
2.8716861327966953E3 0
2.874824580712894E3 0
2.877963028629093E3 0
2.881101476545292E3 0
2.8842399244614903E3 0
2.887378372377689E3 0
2.890516820293888E3 0
2.893655268210087E3 0
2.8967937161262857E3 0
2.8999321640424846E3 0
2.9030706119586835E3 0
2.9062090598748823E3 0
2.909347507791081E3 0
2.91248595570728E3 0
2.9156244036234784E3 0
2.9187628515396773E3 0
2.921901299455876E3 0
2.925039747372075E3 0
2.928178195288274E3 0
2.9313166432044727E3 0
2.9344550911206716E3 0
2.9375935390368704E3 0
2.9407319869530693E3 0
2.943870434869268E3 0
2.9470088827854665E3 0
2.9501473307016654E3 0
2.9532857786178643E3 0
2.956424226534063E3 0
2.959562674450262E3 0
2.962701122366461E3 0
2.9658395702826597E3 0
2.9689780181988585E3 0
2.9721164661150574E3 0
2.9752549140312562E3 0
2.978393361947455E3 0
2.9815318098636535E3 0
2.9846702577798524E3 0
2.987808705696051E3 0
2.99094715361225E3 0
2.994085601528449E3 0
2.997224049444648E3 0
3.0003624973608466E3 0
3.0035009452770455E3 0
3.0066393931932444E3 0
3.009777841109443E3 0
3.0129162890256416E3 0
3.0160547369418405E3 0
3.0191931848580393E3 0
3.022331632774238E3 0
3.025470080690437E3 0
3.028608528606636E3 0
3.0317469765228348E3 0
3.0348854244390336E3 0
3.0380238723552325E3 0
3.0411623202714313E3 0
3.0443007681876297E3 0
3.0474392161038286E3 0
3.0505776640200274E3 0
3.0537161119362263E3 0
3.056854559852425E3 0
3.059993007768624E3 0
3.063131455684823E3 0
3.0662699036010217E3 0
3.0694083515172206E3 0
3.0725467994334194E3 0
3.075685247349618E3 0
3.0788236952658167E3 0
3.0819621431820156E3 0
3.0851005910982144E3 0
3.0882390390144133E3 0
3.091377486930612E3 0
3.094515934846811E3 0
3.09765438276301E3 0
3.1007928306792087E3 0
3.1039312785954075E3 0
3.1070697265116064E3 0
3.110208174427805E3 0
3.1133466223440037E3 0
3.1164850702602025E3 0
3.1196235181764014E3 0
3.1227619660926002E3 0
3.125900414008799E3 0
3.129038861924998E3 0
3.132177309841197E3 0
3.1353157577573957E3 0
3.1384542056735945E3 0
3.141592653589793E3 0
