%%MatrixMarket matrix array complex general
%
1000 1
6.068172539440392E-14 0
1.1787688511891024E-11 0
1.1228412061159683E-14 0
1.9545937473724613E-13 0
3.187668805793008E-15 0
1.342146264692166E-10 0
1.3698551139789128E-13 0
1.1616421681091835E-10 0
4.1477174677750245E-14 0
8.979030374056525E-14 0
1.563219142315622E-9 0
3.942627854899102E-16 0
3.998631058004306E-11 0
8.434198172525766E-10 0
5.355886228648521E-12 0
5.117997797083863E-10 0
2.0737504588123476E-10 0
1.7625405551957632E-10 0
2.479044000424074E-10 0
2.4437456140528205E-10 0
4.6157556064823104E-11 0
2.6737361067720366E-9 0
4.311125231722535E-12 0
1.167166731884961E-9 0
7.957545023548197E-10 0
2.238213129753894E-12 0
4.763945892931965E-13 0
1.509141888233253E-8 0
1.7543702796561998E-11 0
8.91283283682851E-11 0
9.446147357049692E-11 0
1.0338263060428485E-12 0
2.4348610942735904E-10 0
1.951857764801996E-8 0
4.64743861430461E-8 0
3.699253803606546E-9 0
3.0630656783994085E-10 0
7.409549730503604E-10 0
2.7848896496152508E-9 0
4.66787996905859E-9 0
4.425751102820993E-8 0
3.5206784840209704E-13 0
4.0023726798226225E-12 0
1.0293286176913363E-10 0
7.776324282666242E-10 0
2.9202416388595807E-9 0
1.0095890032504514E-12 0
1.3836671863162344E-12 0
8.339221141345707E-10 0
6.978926180350968E-9 0
5.213597127191467E-9 0
1.3589657298269613E-10 0
6.879637498433764E-11 0
2.9255393490971134E-11 0
2.816419195714017E-10 0
5.2104567309804526E-9 0
4.6165932098216813E-11 0
2.1998331631177343E-11 0
1.62604935222209E-8 0
1.6165511686006767E-7 0
7.641601396532513E-8 0
3.9880883592782415E-12 0
8.77159667746889E-11 0
1.4165950227633257E-10 0
2.8804206726026426E-8 0
3.92822978591902E-9 0
1.591444259441828E-8 0
7.901379635028452E-10 0
1.0527953918907061E-10 0
2.7756281516521432E-9 0
4.702887014541583E-9 0
4.3536295237318E-8 0
8.105049156602554E-9 0
9.472218031202912E-12 0
7.571337727226964E-8 0
1.6226913764809552E-8 0
4.531268453853631E-8 0
3.351286193974776E-8 0
6.923021584033243E-11 0
6.977924057335634E-8 0
5.462666226000271E-9 0
5.2522542793220005E-11 0
1.3304491822161562E-8 0
6.83993785139245E-8 0
7.307390005108076E-8 0
6.39438444477599E-11 0
1.242654777835132E-9 0
1.2091916126052227E-9 0
2.4137819474164814E-9 0
5.84663898495708E-9 0
1.1551340765882581E-8 0
9.311779457529786E-9 0
4.169991452143172E-9 0
2.016992113619238E-9 0
1.1319616204492529E-8 0
6.782680053590373E-12 0
2.116039514439382E-8 0
1.1738707174725727E-8 0
4.3492800173934023E-10 0
2.296138211294158E-7 0
1.6871145085766348E-9 0
4.1427841501510474E-10 0
1.0052946622534645E-7 0
1.9103823686505695E-8 0
3.040279770778912E-8 0
2.655167118064225E-7 0
4.492479624891897E-7 0
1.7378488110263195E-7 0
2.6956164374703387E-8 0
6.284758936457029E-8 0
2.0674005211437524E-7 0
5.325869894447888E-7 0
5.750204309814762E-11 0
1.1237148931818445E-10 0
2.2836620091637888E-7 0
6.759032463361918E-8 0
3.99569047334064E-11 0
5.346360283264086E-11 0
2.835006628821948E-10 0
5.78453215274749E-10 0
2.210771884738398E-10 0
8.833291820715371E-8 0
6.073270322841519E-9 0
1.6027333162119795E-8 0
2.020292131313264E-7 0
3.460160971801117E-7 0
2.408071067522727E-7 0
5.630072098701167E-7 0
2.4724500926058124E-9 0
4.2846927335547805E-9 0
5.610911136914581E-9 0
5.579312647855948E-9 0
4.686875711261855E-9 0
3.4845510123843226E-7 0
4.443777913867332E-7 0
2.9769919680597184E-9 0
3.639734212680035E-7 0
1.21822263126032E-9 0
6.623274965932563E-10 0
8.688229299837322E-7 0
3.3769746246929547E-9 0
6.873847887021363E-7 0
8.403299334656756E-7 0
2.2905084298022598E-7 0
6.738904792683403E-10 0
5.8362666006247315E-8 0
5.695714171795602E-10 0
1.1089309597252666E-10 0
6.453478314114435E-10 0
2.605864266764279E-10 0
4.538854864574269E-10 0
1.8445528595747273E-8 0
8.77186732038247E-7 0
5.799373777668281E-7 0
8.329106602541808E-8 0
7.759582235939989E-9 0
1.0581056557762673E-11 0
2.3788775533251774E-10 0
3.908400906958961E-7 0
9.62050195021415E-11 0
1.6723530193802913E-9 0
7.938941638413347E-9 0
1.1670115811290954E-8 0
4.627612499427128E-7 0
3.980121811903398E-9 0
2.0715085918033093E-9 0
4.99599475223769E-7 0
2.5992763199669105E-8 0
3.126517331465406E-8 0
1.3215695586518772E-8 0
3.651221434791141E-8 0
1.2003045021291298E-8 0
1.030268798011102E-8 0
9.10751474502348E-9 0
7.869504077110612E-9 0
6.407904631135227E-9 0
1.4350271707024223E-6 0
4.857822953856869E-9 0
5.691327676681244E-9 0
1.209550875074142E-6 0
1.0139383361609062E-7 0
4.530193370216887E-7 0
1.0660172487438204E-6 0
1.2026120491337866E-6 0
1.1041161462197604E-6 0
4.706788670337893E-8 0
2.792577473131646E-9 0
7.38105457594691E-10 0
2.0376226359443173E-10 0
1.1748390170035266E-8 0
5.580295209758411E-10 0
2.3794073293398917E-7 0
6.276506811941523E-7 0
5.575992293817913E-7 0
2.794210375371204E-7 0
6.847608856722354E-8 0
3.3557110222289175E-8 0
3.6174615033113996E-8 0
2.87179681508578E-8 0
1.9682899699755778E-8 0
1.2002616592635722E-8 0
6.487633886808809E-9 0
3.031127301352417E-9 0
1.199044869995192E-9 0
8.824779107704427E-10 0
1.1842215336373107E-9 0
1.5132440284448756E-9 0
1.7522922741726393E-9 0
6.777840565293021E-8 0
8.426937500961793E-7 0
4.81054273289906E-9 0
1.2565375247511948E-8 0
2.122919511508553E-8 0
2.5521602064588157E-7 0
4.8322181898882715E-8 0
1.3229703684412374E-7 0
2.8633728629389127E-7 0
5.337666823833689E-7 0
8.961183604855001E-7 0
1.3913820827774178E-6 0
1.772331277335521E-6 0
1.5180329230964015E-6 0
1.242102749159141E-6 0
9.575132017264244E-7 0
6.851744936551314E-7 0
4.4040411076157974E-7 0
5.337221416507041E-7 0
5.527624474350595E-7 0
8.521257775351631E-7 0
4.8481608889651666E-8 0
3.848141496448556E-8 0
2.1394298419377779E-7 0
2.541649621239299E-7 0
2.914897252637705E-7 0
3.2260540710306603E-7 0
3.4408959511614385E-7 0
3.524049929142952E-7 0
4.0172763778972173E-7 0
5.127980897004657E-7 0
6.341386280928477E-7 0
7.482418620973018E-7 0
1.1942056418553211E-6 0
1.4392187669705337E-9 0
5.3368424403603134E-8 0
2.829768734668498E-7 0
7.936389193587339E-8 0
1.1352146141837581E-7 0
1.207547166527775E-7 0
6.240825345782695E-8 0
2.0626077758975373E-8 0
2.2186739129236805E-8 0
2.5202215902734915E-6 0
1.5408643361620054E-7 0
1.1950538729165556E-7 0
6.625468680700035E-8 0
2.771034095388396E-8 0
2.3301270558939488E-6 0
1.7721485973945816E-8 0
2.2089412798498084E-8 0
2.4835579356237394E-8 0
2.6754039498358503E-8 0
4.2617064142782396E-8 0
4.128279226669552E-7 0
1.7072907720613651E-7 0
3.3569655167197464E-7 0
4.29494457785111E-7 0
3.981231520240451E-7 0
2.415597845783192E-7 0
4.975376388996449E-8 0
2.0225032011542332E-7 0
1.5501724867769557E-6 0
4.913314871622954E-7 0
6.321804894959961E-7 0
1.3489526037250118E-8 0
5.61886020259152E-8 0
2.81334908836289E-6 0
2.0538084419647379E-7 0
7.334488632956631E-8 0
7.755386772220089E-9 0
3.394001296406965E-6 0
9.32622168149336E-8 0
2.1746001506824035E-8 0
2.7818114608892453E-7 0
1.5283377439982415E-6 0
2.6882375691477675E-8 0
2.1495224920246148E-7 0
1.6073798988974634E-7 0
1.2391154132378558E-7 0
8.662339567551613E-8 0
5.3516434854741106E-8 0
8.968909918762332E-8 0
1.8011004772369415E-7 0
3.1755768983487726E-7 0
8.874616131471004E-7 0
1.974803726757777E-6 0
3.6273316911475665E-6 0
4.5665999595670576E-8 0
7.366374197289088E-8 0
1.0835847332169339E-7 0
1.4807764193000978E-7 0
1.901742243935894E-7 0
2.319915372702419E-7 0
2.711688279257174E-7 0
3.059829021240746E-7 0
3.350417944445203E-7 0
2.660164372293258E-7 0
1.4619694604205742E-7 0
3.300183129659506E-8 0
1.0056090966787495E-7 0
4.9111780123930204E-8 0
1.5470893578363803E-7 0
6.663375930784016E-7 0
1.1065760006880617E-7 0
3.5462453009730355E-7 0
5.043521395586973E-7 0
5.1236550969258E-7 0
4.343040522866945E-7 0
3.2481065073537255E-7 0
2.140185969870854E-7 0
1.2272124278457166E-7 0
6.699989424046452E-6 0
7.517936399783873E-8 0
1.6403789175413744E-6 0
9.37312251372116E-7 0
3.42619976764658E-6 0
4.2178864338307E-6 0
4.881162455881253E-6 0
5.288751468618673E-6 0
5.315192931410789E-6 0
5.3272135350328345E-6 0
2.9539461936535414E-7 0
2.9381231164602306E-7 0
2.702167881474935E-7 0
2.3840668671648508E-7 0
2.110307712330017E-7 0
2.945141643708589E-6 0
4.7207887847321987E-7 0
8.196430949504629E-7 0
9.322345609266635E-7 0
7.47865753193607E-7 0
2.867419518737176E-6 0
2.3024499699696567E-6 0
1.8139710601770006E-6 0
1.4114899061679442E-6 0
1.0781559326361225E-6 0
1.0637104678307399E-6 0
1.077797216933079E-6 0
1.0298271377568861E-6 0
2.641488007063986E-6 0
5.3248892066077415E-6 0
5.8867421187778746E-8 0
1.1639422747906011E-7 0
2.1097970340711657E-7 0
3.561877938865036E-7 0
5.616519363659832E-7 0
2.994063754458854E-6 0
2.213376214665463E-6 0
1.375308084847811E-7 0
1.806912059006514E-7 0
2.2383408305278217E-7 0
2.6084836857704693E-7 0
2.8660755603527387E-7 0
2.9720177429723335E-7 0
1.376770523592481E-7 0
6.402189127052416E-6 0
7.09358902145375E-10 0
8.292271642025539E-7 0
1.2865436095556822E-7 0
4.619172770786081E-8 0
2.4843531452361478E-6 0
1.4082172766004819E-6 0
5.881040973065808E-6 0
1.6270971570552602E-6 0
1.5278224356467607E-6 0
1.1618413766748377E-6 0
1.1675759399648397E-6 0
1.207050795318521E-6 0
1.1283299803402986E-6 0
9.62847110010817E-7 0
7.522088877864166E-7 0
1.1820270171081559E-6 0
5.82315778530551E-8 0
5.1851696030330386E-8 0
8.461514201670927E-6 0
7.446988775389734E-6 0
6.6727536783023575E-6 0
5.4700474319270995E-6 0
5.601420239541885E-6 0
6.061617169650755E-6 0
6.450841832417639E-6 0
6.768027537041156E-6 0
7.009716853321976E-6 0
7.175746948256758E-6 0
7.270802063358434E-6 0
7.293005120840512E-6 0
7.2511630015999315E-6 0
7.151541478551172E-6 0
8.824401522119233E-6 0
9.701904836285869E-8 0
1.3443089209781079E-7 0
1.8271991275897475E-7 0
2.422238640018232E-7 0
3.1647298227116097E-7 0
4.0617343442621216E-7 0
5.119289503054154E-7 0
6.376572896479398E-7 0
7.835572320698771E-7 0
9.513667973989411E-7 0
1.1394347339312866E-6 0
1.3520617417908401E-6 0
1.585189698227481E-6 0
1.841635181873368E-6 0
2.119577065854741E-6 0
2.643101566716746E-6 0
3.528856785068688E-6 0
9.587338059556712E-7 0
8.073296200768862E-7 0
6.710489055522467E-7 0
5.519392120925359E-7 0
5.851058909976105E-7 0
5.40437877929567E-7 0
6.314467864659356E-7 0
7.308126505336178E-7 0
8.376833920109821E-7 0
9.669389539040511E-7 0
1.105193262604388E-6 0
1.2321700937115302E-6 0
1.3465127851363205E-6 0
1.4802855088062902E-6 0
1.6286363997213938E-6 0
1.7821066358622235E-6 0
1.942106735012885E-6 0
2.107125594578891E-6 0
2.2761827162655354E-6 0
2.448799019486071E-6 0
2.6293840075657916E-6 0
2.814264012223471E-6 0
3.003040764182196E-6 0
3.197497691563861E-6 0
3.3971920838766177E-6 0
3.4311775155249615E-7 0
3.916957152614488E-7 0
4.36038826485904E-7 0
2.7242000723014247E-6 0
2.7545058109615096E-6 0
2.9853372987619557E-6 0
3.205451640846606E-6 0
3.4195263472828624E-6 0
3.6233231734923944E-6 0
3.819168489455039E-6 0
4.005619219543465E-6 0
4.177934324068184E-6 0
4.340667606505291E-6 0
4.490330712643644E-6 0
7.450181673941812E-7 0
7.404536920680778E-7 0
7.280667438380468E-7 0
7.065150949957641E-7 0
6.784309854368964E-7 0
6.423129547252922E-7 0
6.004528634751874E-7 0
5.527127566030094E-7 0
5.013153984774571E-7 0
4.657133250432711E-7 0
4.814810934381772E-7 0
4.948928873380655E-7 0
5.666882140417196E-7 0
7.20343796380055E-7 0
8.469454461561905E-7 0
3.872714286019729E-6 0
3.5882871728778646E-6 0
3.306684728440433E-6 0
3.032129078460425E-6 0
2.766786459158614E-6 0
2.506569729862198E-6 0
2.256185778273387E-6 0
2.018270580726963E-6 0
1.792864930952119E-6 0
1.5803347925320239E-6 0
1.3923317634532197E-6 0
1.271939885753192E-6 0
1.154537656022088E-6 0
1.0393675042746975E-6 0
9.285224575830273E-7 0
8.206019886135511E-7 0
7.187712286450842E-7 0
6.222123667879845E-7 0
5.315675215144323E-7 0
4.5291641455137437E-7 0
4.1044455491263477E-7 0
4.416016457418883E-7 0
4.91938143411372E-7 0
1.8057343191309505E-6 0
1.8289542406945626E-6 0
1.5787600207533725E-6 0
1.5029134759944551E-6 0
1.2491526232162717E-6 0
1.909564482690962E-6 0
2.3979216763456003E-6 0
2.4447540882381443E-6 0
1.2175305096583202E-6 0
1.6423349716869364E-6 0
3.594387727398378E-6 0
3.3451642497074106E-7 0
2.5517704197560127E-9 0
7.784715906556061E-6 0
3.328926237855233E-6 0
1.7004977967586045E-6 0
1.4291861381192437E-6 0
1.8009007711755716E-6 0
5.519496662374787E-6 0
1.3221597583978911E-5 0
1.0555191295200746E-5 0
1.2702673556477128E-5 0
1.6199052708701775E-6 0
1.5732302731828698E-6 0
9.737006817741177E-7 0
1.7467200973740295E-6 0
1.677863872166673E-6 0
1.3719152682962517E-6 0
9.655973822970228E-7 0
8.991820158180647E-7 0
9.888075649760806E-7 0
1.1450544331112252E-6 0
1.138875805263786E-6 0
1.0326194125151974E-6 0
9.591932172569834E-7 0
1.0244312020063574E-5 0
1.0406621801287077E-5 0
1.0291691275562454E-5 0
9.92717073234966E-6 0
9.350299544830045E-6 0
8.606123493557901E-6 0
7.74438968582766E-6 0
2.6794323851081316E-6 0
3.6902428376120797E-6 0
2.2244022396277543E-7 0
9.256127708783836E-6 0
6.910460374030225E-6 0
4.965538583280334E-6 0
3.3979684918203053E-6 0
2.222264362641712E-6 0
1.5793759895606728E-6 0
1.2509149223232564E-6 0
1.4053474967814796E-6 0
1.511932957185556E-6 0
1.5660656471095863E-6 0
1.5674605136183282E-6 0
1.5199850437901885E-6 0
1.5421598907880619E-6 0
1.6770833758518949E-6 0
1.9851495299306455E-6 0
2.478927130406619E-6 0
1.918099679232744E-6 0
1.3140698991177605E-6 0
1.253994315049963E-6 0
1.2998720134579518E-6 0
1.2864388405098473E-6 0
1.2266065741898596E-6 0
9.774556748007646E-6 0
9.190904638897102E-6 0
9.436301616574702E-6 0
8.884827756848354E-6 0
7.913145980198975E-6 0
7.133200878635897E-6 0
6.892147670236893E-6 0
7.270308143207893E-6 0
7.91782164915667E-6 0
7.279423424757004E-6 0
5.627073046827991E-6 0
6.86468221058164E-7 0
8.325195487897462E-6 0
4.913107114731288E-6 0
1.4005917434083495E-6 0
1.2736944472216833E-5 0
1.2667359740606962E-6 0
1.0358396268693513E-6 0
5.2121455102593765E-6 0
9.63379663092943E-6 0
8.951568241444848E-7 0
8.669539718831484E-6 0
4.6011529384886E-6 0
3.4642552327452978E-6 0
5.4062611319078E-6 0
6.216781992484123E-6 0
1.1471386443303043E-6 0
1.2432189081606674E-5 0
1.3851098852958859E-5 0
5.290294170493681E-6 0
1.0430628610288544E-5 0
1.0556180982252624E-6 0
5.2267111864238595E-6 0
3.1419732384042916E-6 0
4.6622485433736165E-6 0
6.708921438809833E-6 0
8.20600525242375E-6 0
1.3507345463458463E-5 0
1.6196341576058107E-5 0
1.5424254673147988E-5 0
2.1137489553465004E-6 0
2.9706429435097864E-6 0
3.7700751684577072E-6 0
2.392572238205812E-6 0
4.698116977363134E-6 0
3.2780365269834962E-6 0
2.381356980243393E-6 0
2.6177236144968397E-6 0
2.8043473565401604E-6 0
2.961150384795492E-6 0
3.07369144216246E-6 0
3.1395040031444204E-6 0
3.156734182430781E-6 0
3.1254575489457544E-6 0
3.049278357348941E-6 0
3.2122047348372742E-6 0
4.080703447069761E-6 0
5.042287845559979E-6 0
6.0928453266493725E-6 0
7.212628416174429E-6 0
8.408692991652755E-6 0
9.665654409341396E-6 0
1.0977482893875372E-5 0
1.274095622762428E-5 0
1.4693567493399444E-5 0
5.932857988428412E-7 0
7.012346042132845E-7 0
8.173841950250344E-7 0
9.424902641633902E-7 0
1.0753863453207178E-6 0
1.2165016119918656E-6 0
1.7552131949076296E-6 0
1.5561181487733339E-6 0
1.3759883473904807E-6 0
1.2146331546681895E-6 0
1.187680916095671E-6 0
1.2310970494132874E-6 0
1.5598800515330004E-6 0
1.6902209164958128E-6 0
1.8073263143442266E-6 0
1.911522515765955E-6 0
2.004911742672964E-6 0
2.0887120800773144E-6 0
2.1643709859217362E-6 0
2.232151360061588E-6 0
2.2943758537149136E-6 0
2.35194552137811E-6 0
2.404240810453798E-6 0
2.453677501851887E-6 0
2.4993105280476227E-6 0
2.5445832873730267E-6 0
2.5878643812038415E-6 0
2.6300162055393114E-6 0
2.6719323189063307E-6 0
2.713626404671141E-6 0
2.754023613262727E-6 0
2.796228904096746E-6 0
2.838763625803462E-6 0
2.8825574871476427E-6 0
2.926969612639784E-6 0
2.9734709242720716E-6 0
3.019218860742212E-6 0
3.068716572331242E-6 0
3.120232040997396E-6 0
3.172712496645094E-6 0
3.2246840397964194E-6 0
3.2812138935283143E-6 0
3.33943709280332E-6 0
3.397175371952137E-6 0
3.4564450146364102E-6 0
3.5204065389604617E-6 0
3.5836608437105806E-6 0
3.6515284211224066E-6 0
3.7169622429242326E-6 0
3.78643290096864E-6 0
3.856655098303415E-6 0
3.927645148747499E-6 0
4.00089465153769E-6 0
4.074444411328615E-6 0
4.150689409376442E-6 0
4.225053265543134E-6 0
4.302649114878887E-6 0
4.380558260779993E-6 0
4.458948790710254E-6 0
4.536735931586164E-6 0
4.615927495778364E-6 0
4.697075173042229E-6 0
4.77457875028956E-6 0
4.854287444603037E-6 0
4.933200553064012E-6 0
5.011742545487063E-6 0
5.090299912125578E-6 0
5.167975929961302E-6 0
5.246645587471242E-6 0
5.323776552312664E-6 0
5.397195347296976E-6 0
5.470987214984457E-6 0
5.545138431213326E-6 0
5.616317282614063E-6 0
5.68794297610264E-6 0
5.755550131887407E-6 0
5.822389061974274E-6 0
5.886840502094455E-6 0
5.949955982870211E-6 0
6.011750217845021E-6 0
6.069688565348049E-6 0
6.125821689563111E-6 0
6.17959529274096E-6 0
6.231406597479713E-6 0
2.793926175868819E-6 0
2.800059414261624E-6 0
2.8051803033529477E-6 0
2.8084837367558564E-6 0
2.811084822401616E-6 0
2.8137384316166163E-6 0
2.92826557114025E-6 0
3.104292536733528E-6 0
3.2800783672669832E-6 0
3.4663387904397097E-6 0
3.662228716696488E-6 0
3.85903125246686E-6 0
4.06203662235771E-6 0
4.263342868855496E-6 0
4.483793922292306E-6 0
4.7002967623289635E-6 0
6.000634017285894E-6 0
5.907782090793396E-6 0
5.815426478263672E-6 0
5.7199206105248285E-6 0
5.621473987317663E-6 0
5.528752370735298E-6 0
5.4321007916489645E-6 0
5.338498903142237E-6 0
5.243568629107075E-6 0
5.153357814076731E-6 0
5.062912315881613E-6 0
4.96860194554614E-6 0
4.882598863434643E-6 0
4.896814914327901E-6 0
4.927595091463427E-6 0
4.957260905898896E-6 0
4.983748777216422E-6 0
5.010278246392257E-6 0
5.035262430180609E-6 0
5.058161652945849E-6 0
5.079348328178377E-6 0
5.100315892213187E-6 0
5.1177140106530505E-6 0
5.135385062118947E-6 0
5.150648226084006E-6 0
5.1654892643197684E-6 0
5.1776393441700755E-6 0
5.18998282950541E-6 0
5.199700467792875E-6 0
5.20919335429141E-6 0
5.2167996343902636E-6 0
5.22243320988337E-6 0
5.228877719681995E-6 0
5.233717468167894E-6 0
5.236196612284723E-6 0
5.2385082509550415E-6 0
5.238469651511183E-6 0
5.237858414298713E-6 0
5.2371314949542795E-6 0
5.235794383392074E-6 0
5.233219153819938E-6 0
5.229869104653452E-6 0
5.223554639712292E-6 0
5.220670433128536E-6 0
5.214384437472248E-6 0
5.208987972205736E-6 0
5.200031959540894E-6 0
5.193504317791103E-6 0
5.184977321292373E-6 0
5.1752758503906834E-6 0
5.166652696127232E-6 0
5.155294152219076E-6 0
5.1459878185052086E-6 0
5.134593049151422E-6 0
5.12352815159994E-6 0
5.109640863351937E-6 0
3.8459829673499735E-5 0
3.8379819019391755E-5 0
3.828488867409002E-5 0
3.81862097739976E-5 0
3.8101533141659204E-5 0
3.7998286159536304E-5 0
3.789925876324389E-5 0
3.7799320180480255E-5 0
3.768715035219262E-5 0
3.759413721334383E-5 0
3.749315195622396E-5 0
3.738009802913304E-5 0
3.727181064590757E-5 0
3.7167261604725246E-5 0
3.7042210697418214E-5 0
3.693451650015186E-5 0
3.682312533077696E-5 0
3.671090554061701E-5 0
3.6598483095662314E-5 0
3.6472969236430656E-5 0
3.6354397900535814E-5 0
3.623616722226862E-5 0
3.613690974546904E-5 0
3.601009250387636E-5 0
3.5887414334737815E-5 0
3.5772310804591044E-5 0
3.56505358741064E-5 0
3.553276411744934E-5 0
3.541812911842825E-5 0
3.528959951372575E-5 0
3.5163480503370005E-5 0
3.50532388809446E-5 0
3.491998395239136E-5 0
3.480067821316356E-5 0
3.4684715753296146E-5 0
3.4560512665384206E-5 0
3.444416530091598E-5 0
3.430739780057896E-5 0
3.4179917293482016E-5 0
3.4064621628528374E-5 0
3.394736986283111E-5 0
3.3829599145612224E-5 0
3.3704515455905675E-5 0
3.357558239703228E-5 0
3.345911951639288E-5 0
3.333409012185593E-5 0
3.321153374196643E-5 0
3.308772659335623E-5 0
3.297006618385213E-5 0
3.2848390497426314E-5 0
3.2728813645394646E-5 0
3.26020177756417E-5 0
3.247622987792879E-5 0
3.236142842681438E-5 0
3.224555636791048E-5 0
3.2121644677391304E-5 0
3.200909450743925E-5 0
3.1883942983042366E-5 0
3.175154706958863E-5 0
3.16406911933932E-5 0
3.151507628775224E-5 0
3.140831129398746E-5 0
3.128004522336451E-5 0
3.116118696617034E-5 0
3.1044414458199676E-5 0
3.092540274415032E-5 0
3.080930068544369E-5 0
3.0686341607383044E-5 0
3.057111837282214E-5 0
3.0453061594842834E-5 0
3.0333554025328228E-5 0
3.0216612420465967E-5 0
3.010258361246218E-5 0
2.9985847362918173E-5 0
2.987070079870567E-5 0
2.975199568754799E-5 0
2.9636213601531413E-5 0
2.9514802996795212E-5 0
2.940340254316753E-5 0
2.928253178878515E-5 0
2.9168131773781654E-5 0
2.9054380746772472E-5 0
2.8933589822364915E-5 0
2.8821795040468302E-5 0
2.8701950313597896E-5 0
2.8592996720571285E-5 0
2.847214164799789E-5 0
2.8356284464160287E-5 0
2.825088916196672E-5 0
2.81298395733864E-5 0
2.8012464586699354E-5 0
2.7895474398268176E-5 0
2.7777771913344647E-5 0
2.7661109260965677E-5 0
2.755833369616782E-5 0
2.743634691063459E-5 0
2.731242224413206E-5 0
2.720371509175735E-5 0
2.7087589874118592E-5 0
2.6974400314120207E-5 0
2.6853599461971133E-5 0
2.674665769839381E-5 0
2.6633456685118352E-5 0
2.6509218161486733E-5 0
2.6393308439905225E-5 0
2.628255006601897E-5 0
2.6168635461105906E-5 0
2.6042653362632706E-5 0
2.5930275567102575E-5 0
2.5817528383738212E-5 0
2.569260065441928E-5 0
2.557369655050275E-5 0
2.5467252745660005E-5 0
2.5350022027245147E-5 0
2.5232663949484454E-5 0
2.5115711756867832E-5 0
2.4995670719896385E-5 0
2.488107161908548E-5 0
2.4761861002307742E-5 0
2.4645214161207003E-5 0
2.452273337583957E-5 0
2.4401881185292227E-5 0
2.428686892213725E-5 0
2.4166207758483213E-5 0
2.4047046072569068E-5 0
2.3927033155455137E-5 0
2.381189283127673E-5 0
2.369019056595032E-5 0
2.3565019426609757E-5 0
2.3443078879048095E-5 0
2.333138931642835E-5 0
2.3202923027950838E-5 0
2.3081415843751948E-5 0
2.2964541917171394E-5 0
2.2841358054283495E-5 0
2.272242329229453E-5 0
2.259434942107738E-5 0
2.2474270408720997E-5 0
2.234993044118006E-5 0
2.2226186872497105E-5 0
2.21032214677436E-5 0
2.1978418618370734E-5 0
2.18570658457669E-5 0
2.173150442620435E-5 0
2.1607955459042002E-5 0
2.1480796567152345E-5 0
2.1361988649512315E-5 0
2.1234946516345086E-5 0
2.1104929626419606E-5 0
2.0980625306128416E-5 0
2.0850918092973328E-5 0
2.0732842278726885E-5 0
2.0604242674758402E-5 0
2.0474208022452434E-5 0
2.035130171964384E-5 0
2.0216878977442844E-5 0
2.0094857272559E-5 0
1.9963718446886088E-5 0
1.9838157869577486E-5 0
1.9712545467411816E-5 0
1.957702428326166E-5 0
1.9448056185339998E-5 0
1.9321435202812576E-5 0
1.919181760149844E-5 0
1.9057110768725847E-5 0
1.8933257087981657E-5 0
1.880013583008852E-5 0
1.8670679598102385E-5 0
1.854000020950499E-5 0
1.8408935185287097E-5 0
1.828308174966196E-5 0
1.814896660639817E-5 0
1.801914283249375E-5 0
1.7884925714548386E-5 0
1.7756394641056444E-5 0
1.7627067879113882E-5 0
1.7492922006767675E-5 0
1.7359011961774447E-5 0
1.723100490521435E-5 0
1.709645076583419E-5 0
1.6964994367450422E-5 0
1.6835315726071356E-5 0
1.670009592041465E-5 0
1.657030952514259E-5 0
1.643585417293326E-5 0
1.6304872767808625E-5 0
1.617107137236336E-5 0
1.603926815007281E-5 0
1.590556382074945E-5 0
1.577456760964676E-5 0
1.5642163361608593E-5 0
1.5510220843653415E-5 0
1.537455876562667E-5 0
1.5244567904360614E-5 0
1.511301733991076E-5 0
1.4985898311221978E-5 0
1.4972798710522259E-5 0
1.4970092062092E-5 0
1.4957790860630496E-5 0
1.495536573344736E-5 0
1.4939837791344709E-5 0
1.4927561730504506E-5 0
1.4912058617852389E-5 0
1.490060905926248E-5 0
1.852864664692852E-5 0
1.8141410367943295E-5 0
1.7751103510531513E-5 0
1.7372583599781493E-5 0
1.699927713955015E-5 0
1.6619814555780084E-5 0
1.6222049716761017E-5 0
1.585676689098346E-5 0
1.548673868947197E-5 0
1.5126289145341476E-5 0
1.4751851646698796E-5 0
1.4392566151593279E-5 0
1.404943800758444E-5 0
1.3689833788307573E-5 0
1.3595288230934462E-5 0
1.3507600915101998E-5 0
