%%MatrixMarket matrix array complex general
%
1000 1
1.22883253594973 -1.2289788804112944
1.5047115067089814 -1.5049794385577113
1.7372934684684767 -1.7377069030940429
1.9421980517104778 -1.9427756859567866
2.127437107588062 -2.1281965709119928
2.297770813785105 -2.298736353602967
2.4563041394034015 -2.4574730231325908
2.60519944545764 -2.606587749089327
2.7459997028396255 -2.7476333312684504
2.879916998156543 -2.881801691085196
3.0078230524512493 -3.010034536959371
3.130569526064103 -3.1329909045763724
3.2486318320506564 -3.2513457983904734
3.3625297402850207 -3.3655801142975403
3.472695273679847 -3.475997519190694
3.5794610417447394 -3.5830361535694233
3.683111845532384 -3.6870248425338796
3.7839108302625144 -3.7881601067537725
3.882078523463763 -3.886669682860091
3.9778117754352285 -3.9827609225266833
4.071291892699541 -4.0766428001925625
4.162765138380106 -4.168295896392876
4.252063686659438 -4.258133720937115
4.339620249702905 -4.346151680273786
4.425425042167714 -4.432333259278368
4.509571839983022 -4.516823712408868
4.592180102516953 -4.599833850507687
4.673525831492103 -4.681684851683092
4.753073996698064 -4.76156290838566
4.831510226790447 -4.840416796481144
4.908672702840094 -4.918004284179135
4.984600883257513 -4.994388268972515
5.059349995995413 -5.069633523898313
5.133589083712977 -5.143661382121321
5.205245084513103 -5.217523085840533
5.277366670341981 -5.28926244773291
5.348100878306651 -5.360255731389739
5.417754736915795 -5.430488782677362
5.486491125235996 -5.499844510488807
5.554393897957502 -5.568218849141507
5.621454424859201 -5.635076951580231
5.6882058569748875 -5.702766199955442
5.753782717367048 -5.768865762178734
5.818585349638015 -5.834219944918673
5.882621301716443 -5.8988349943759095
5.9459257661576315 -5.9627144135987535
6.0089084051469035 -6.0260902956069735
6.071004397904368 -6.088721292593623
6.132411396416445 -6.150567906450073
6.19316247676853 -6.211670408808332
6.2534838044495835 -6.27249848143849
6.3131569743708456 -6.333042275868852
6.3722399994461805 -6.3927185810871
6.430774746297216 -6.45185413428649
6.488792333755607 -6.510548066782834
6.546327492965129 -6.568946217475407
6.603228596632529 -6.626100540126328
6.659715898870563 -6.683151232686503
6.716239108640545 -6.740388234535666
6.773104159513777 -6.797717991816237
6.824553615100916 -6.851295397542785
6.880962101249588 -6.906808341969307
6.935119525676094 -6.961653616830958
6.988870899476995 -7.016052937873497
7.041254756762753 -7.069331558995137
7.094812758837732 -7.1233112775688285
7.146913853029211 -7.177089066281868
7.199729511775325 -7.22936640318018
7.251665147135252 -7.281985459275497
7.303441320031699 -7.333853136809214
7.3546052611985715 -7.385729170103701
7.406223440178075 -7.436259928911977
7.4554250691117225 -7.488582274311324
7.505033325789903 -7.538603874969365
7.55588478631561 -7.587014592131196
7.6030592831127715 -7.638461030523047
7.651225882009712 -7.688389979658226
7.700578525152477 -7.736831018169517
7.749980473456326 -7.786939224005831
7.800393397679558 -7.835729132726857
7.845877595010142 -7.88484517326237
7.893328558495753 -7.932297057049172
7.940236879835569 -7.97921238099826
7.986978974173703 -8.025455879314302
8.031445439297165 -8.075124789994192
8.08033250387619 -8.12214259690265
8.126023790588805 -8.16902048131623
8.17182306720816 -8.215490871159496
8.217300492819875 -8.261519163101427
8.262291253889229 -8.307488855045909
8.306942217708107 -8.353407493967673
8.35181869540629 -8.398960192597398
8.396688429837058 -8.444202555944619
8.441212939618229 -8.489214926145635
8.486125743202651 -8.533237161895913
8.529479446989084 -8.578854907361277
8.571622702395867 -8.622720539183382
8.615316777666731 -8.667161534526299
8.659632655478525 -8.71104669228228
8.706913920118897 -8.75194185116244
8.745072355371768 -8.798892922200151
8.78800133825523 -8.841723613011233
8.826890963439322 -8.886600580520753
8.873751802257154 -8.92772613641786
8.915719152219767 -8.971549585049342
8.951911060747785 -9.017627429024024
8.99134826168153 -9.06061247010624
9.034909392790713 -9.100785884523411
9.07883519432673 -9.14102258038166
9.11866610678203 -9.183372757006344
9.157349948648937 -9.226542070346971
9.195265087120921 -9.270233816122841
9.242007104376622 -9.304912664598165
9.282154699110796 -9.345874575857827
9.320435380205524 -9.392667108078538
9.365278459396425 -9.428511003932828
9.401757057820168 -9.467989849182988
9.44109034128672 -9.508238109910671
9.480296585583924 -9.548498815260993
9.51937178584323 -9.58857184832636
9.55843196011582 -9.628311878248374
9.59395654477094 -9.66567775373625
9.635500253938892 -9.706443998370304
9.672873069156324 -9.746137370070215
9.70688432276315 -9.788002635759542
9.744051058153376 -9.829561234782604
9.783774523344613 -9.868508566263202
9.818164864907246 -9.909012120581833
9.864543706995557 -9.941937626943659
9.902026833114334 -9.980620305017533
9.939390216013484 -1.0019072766281075E1
9.976673091325113 -1.0057253028550006E1
1.0013875129926214E1 -1.0095214553457051E1
1.004435996635284E1 -1.0138052297600604E1
1.0077844759213518E1 -1.0171466237451776E1
1.0124456963861403E1 -1.020830029903141E1
1.0152377269420562E1 -1.0241836021666638E1
1.0197184230092187E1 -1.0282114294119854E1
1.0233631071710374E1 -1.0319727991197094E1
1.0259571276209345E1 -1.0367082308310485E1
1.0305329386420283E1 -1.0393882003704613E1
1.0329394154107364E1 -1.0426223917471479E1
1.0390875761014984E1 -1.0474719650682175E1
1.0413034390976131E1 -1.0495918609415426E1
1.0449315304031424E1 -1.0539856604213135E1
1.0487425726311969E1 -1.0579422834367836E1
1.0519769741823163E1 -1.0613221382137432E1
1.0555007704333622E1 -1.0649112714763916E1
1.0589610731877746E1 -1.0684886069529414E1
1.062485464146562E1 -1.0721055668827475E1
1.0659780763943447E1 -1.0756931421723182E1
1.0692619290720366E1 -1.079369886207681E1
1.0716933819983971E1 -1.081656803967868E1
1.075034978669571E1 -1.086013327068697E1
1.0792741018766248E1 -1.089919920629234E1
1.0832764608622028E1 -1.0932249314571337E1
1.0866186313279876E1 -1.096870290455775E1
1.0900297031492844E1 -1.100400692337503E1
1.0923026510635278E1 -1.10416303729614E1
1.0967737142144458E1 -1.10732842514221E1
1.1000863769348106E1 -1.1107761546994038E1
1.1033749558025027E1 -1.1141696372061254E1
1.1066650564098211E1 -1.1176516140791582E1
1.1089076909959823E1 -1.1210796988574348E1
1.1134386681195966E1 -1.1246553893203277E1
1.1167693775089424E1 -1.128038324534388E1
1.1188863063458534E1 -1.1308523297109371E1
1.1232264902611085E1 -1.1350175625024296E1
1.1264765824843046E1 -1.1384149990594276E1
1.1298256290043154E1 -1.141694282939523E1
1.1329517805719002E1 -1.1451297280109006E1
1.1364561144832663E1 -1.1484831194268502E1
1.1397090741157216E1 -1.1518178639937569E1
1.1429515695365312E1 -1.1551469868981798E1
1.1461854754778498E1 -1.15846553321988E1
1.149411492795788E1 -1.1617709460211112E1
1.1505744447913681E1 -1.1662552182031614E1
1.155827042471201E1 -1.1683666387203251E1
1.1589968714927064E1 -1.17166819007645E1
1.1600179841253786E1 -1.1754896987089944E1
1.1647942525296276E1 -1.1783785987947175E1
1.1672277090221897E1 -1.1818726157790524E1
1.1696774527415267E1 -1.1854659025353229E1
1.172654191845428E1 -1.188704549746061E1
1.1758619537342506E1 -1.191895133918135E1
1.180648455726163E1 -1.1943250376628628E1
1.1841339946913827E1 -1.1975068221129824E1
1.187401879278352E1 -1.2008002139971772E1
1.1904746489182337E1 -1.2039561951224844E1
1.1937852320709688E1 -1.2072061716945795E1
1.1965773060839064E1 -1.2103786553402399E1
1.1991101842921807E1 -1.2126276382852168E1
1.2013971453572019E1 -1.215572202480719E1
1.2051154352128025E1 -1.218351405933357E1
1.2077720455001858E1 -1.2235410268795176E1
1.211383945013754E1 -1.2264698607188112E1
1.2145407886841197E1 -1.2293688658346925E1
1.2175500086159868E1 -1.2325063816669388E1
1.2206162180456817E1 -1.2356298482141856E1
1.2236951546144988E1 -1.2387451793718373E1
1.2267709293945153E1 -1.2418550706607597E1
1.229835705746994E1 -1.2449604794369698E1
1.2328850890523196E1 -1.248061288977606E1
1.2359152720971249E1 -1.2511566960545997E1
1.238901044151461E1 -1.2542485984218613E1
1.241856776490181E1 -1.2573353267008594E1
1.244805710083711E1 -1.2604132826048797E1
1.2477506678189112E1 -1.2634817822345084E1
1.2501571977405426E1 -1.2666131973305145E1
1.2515673007595492E1 -1.2703054290697427E1
1.2564922658395018E1 -1.2725688433723704E1
1.2593051064960251E1 -1.2756041480097597E1
1.2621327924637308E1 -1.2786434924847994E1
1.2642122909806428E1 -1.282162115967427E1
1.2677949282872023E1 -1.2849305301436415E1
1.2703553643269153E1 -1.2881058865829566E1
1.2728536624819517E1 -1.291331931992709E1
1.2753024590465413E1 -1.2946132667397032E1
1.2777153494445288E1 -1.2979529957917883E1
1.2801063771586966E1 -1.3013523994880957E1
1.2826670218196387E1 -1.304629164768992E1
1.2857059040281069E1 -1.3074338384382285E1
1.2887822350826351E1 -1.310204543048686E1
1.291898223154632E1 -1.312943225001658E1
1.295048693003586E1 -1.3156583569508427E1
1.2982324214559299E1 -1.31835450938501E1
1.3008675077071015E1 -1.321351676672032E1
1.3036208220935114E1 -1.3242649620111369E1
1.3059978023590512E1 -1.3274506852828685E1
1.3104191108072163E1 -1.3291929023957513E1
1.3132774839036077E1 -1.3320838314953798E1
1.315664642851929E1 -1.3358543360312167E1
1.3183332228112224E1 -1.3388119231031874E1
1.321006048443746E1 -1.341750875755748E1
1.323688350138862E1 -1.3446691461471353E1
1.3263855632124777E1 -1.3475648835810501E1
1.3291040269298517E1 -1.3504361154125576E1
1.3317320864334642E1 -1.3533462284442294E1
1.3342428872375068E1 -1.3563025023823641E1
1.336746701081592E1 -1.3592415738933877E1
1.3392699612445696E1 -1.3621532242894324E1
1.3413551857759462E1 -1.3652379031584788E1
1.346791708216389E1 -1.366522896320742E1
1.3489282791904035E1 -1.3694631818688851E1
1.3508043902568904E1 -1.3726781375267665E1
1.3544776076957936E1 -1.3757078813709475E1
1.3570404836306619E1 -1.378633470108536E1
1.3596817098546138E1 -1.3814491634540932E1
1.3625625627443092E1 -1.384042390285081E1
1.3655504490149433E1 -1.3866904382890759E1
1.3682148951285443E1 -1.3895038541589614E1
1.3665186384526123E1 -1.3933914431982261E1
1.3729828938596032E1 -1.3955921667945576E1
1.3757966596391412E1 -1.3983253034130243E1
1.378688221058202E1 -1.4009442435279045E1
1.3815501030085173E1 -1.4035172280342048E1
1.3801735741154257E1 -1.4079887467012576E1
1.3868942933617516E1 -1.4089671118270864E1
1.3894888496396959E1 -1.4117637013868581E1
1.3920885101057888E1 -1.4145369021888191E1
1.394688843312206E1 -1.4172971305185621E1
1.3972172560639525E1 -1.4201493769573672E1
1.3983954470221883E1 -1.4233661560828473E1
1.4016134116173854E1 -1.4256986416053614E1
1.4037491429947687E1 -1.4287041923074918E1
1.406135456724462E1 -1.43157126377539E1
1.408808741465732E1 -1.4342888535037352E1
1.4118104122873318E1 -1.4368215250656952E1
1.4151528452679173E1 -1.439091893508219E1
1.4172341948846604E1 -1.4423717022563453E1
1.4171423827667002E1 -1.4457789819030173E1
1.4214380121579563E1 -1.4479192875311767E1
1.4235329639812429E1 -1.4485080115143338E1
1.4281861174410126E1 -1.4521150628925877E1
1.4303745481943462E1 -1.4550726099943907E1
1.4287393641049139E1 -1.46027181724185E1
1.4349920610667446E1 -1.4610859058633292E1
1.4384367869613456E1 -1.4619588069360331E1
1.441290771705393E1 -1.4651860851910696E1
1.441099952231022E1 -1.462432281110192E1
1.4456405849509359E1 -1.4700135769808053E1
1.4484448463633742E1 -1.4737446530660293E1
1.4496289675117476E1 -1.476651298887476E1
1.4498236048773627E1 -1.4801857783444396E1
1.4560862719884E1 -1.481857403824107E1
1.4577247914022047E1 -1.4851415748440628E1
1.4604148135547845E1 -1.4876581572551792E1
1.4630574993123984E1 -1.4901918101192363E1
1.4657144961135625E1 -1.4926913433308338E1
1.468373135919781E1 -1.4951617004039328E1
1.4706266845806349E1 -1.4979107163481647E1
1.4726729125760645E1 -1.500733554183508E1
1.4746410893511845E1 -1.503527306215015E1
1.4757810566226775E1 -1.5066209991831157E1
1.4765463187526985E1 -1.5096320224684908E1
1.4771209810197615E1 -1.5124895055973566E1
1.4856765911963937E1 -1.513327671401145E1
1.4879563445574695E1 -1.5160549599010508E1
1.4902209218261806E1 -1.5187685159960362E1
1.4924790503752376E1 -1.5214645920227294E1
1.4947398523292394E1 -1.5241402227527729E1
1.4970098899056016E1 -1.5267947337437992E1
1.4992935473677326E1 -1.529428655327316E1
1.5015929786288222E1 -1.5320434167066866E1
1.5039097399285817E1 -1.5346403649501191E1
1.5065424010579079E1 -1.5370873625293237E1
1.5094090457028416E1 -1.5393802671704856E1
1.5124424870712401E1 -1.5414406367958142E1
1.514359936827562E1 -1.544266581923198E1
1.5170334274326454E1 -1.5465599715058508E1
1.5185709049242789E1 -1.5490164671175112E1
1.5194904428528192E1 -1.5522845319991388E1
1.5234812480977022E1 -1.553747597800798E1
1.5249411174281486E1 -1.5567864575452003E1
1.526935063895798E1 -1.5595784392768799E1
1.5292853758054209E1 -1.5621181509635722E1
1.531835789992554E1 -1.5645042910794647E1
1.5344948996308915E1 -1.5668163562921682E1
1.537222997732621E1 -1.569098422185488E1
1.5399791236152803E1 -1.5713884449677208E1
1.5362940668211795E1 -1.5807656093209832E1
1.5449472393286639E1 -1.5762020196977911E1
1.5442466124065975E1 -1.5815825760504033E1
1.5474504804225822E1 -1.5831263898622199E1
1.5476455859106101E1 -1.5886512580698815E1
1.5495468673556504E1 -1.591895808324935E1
1.5515931467062162E1 -1.5950113363057298E1
1.5538137938794476E1 -1.5979225417435364E1
1.5562404196335622E1 -1.6005491734443016E1
1.5586798707938966E1 -1.6031646709849372E1
1.5649505965282962E1 -1.5991634584182826E1
1.5672495847758265E1 -1.6015914240634885E1
1.5696227631675246E1 -1.6039770522703268E1
1.5720304958257188E1 -1.6063467247027415E1
1.5744294602205294E1 -1.608726974678719E1
1.5739628765325229E1 -1.6160665728898568E1
1.5784444671496818E1 -1.6145759989522602E1
1.5801723147686037E1 -1.6178071644636088E1
1.5823912891661703E1 -1.6205646091569097E1
1.5850500730049427E1 -1.6227819521529742E1
1.5843470651221718E1 -1.6271936489336607E1
1.5870729790490723E1 -1.6290043063562614E1
1.5898028107122101E1 -1.630842105899577E1
1.592517814655307E1 -1.6327298081796492E1
1.595224338119982E1 -1.634659222317105E1
1.597491930510874E1 -1.6370445668886482E1
1.599712258016123E1 -1.6394695369823932E1
1.6020254109365414E1 -1.6417965358727674E1
1.6025357211534416E1 -1.646377935364354E1
1.6032029809142134E1 -1.6515158913380333E1
1.6114980976328393E1 -1.6468493400979334E1
1.6133321621027505E1 -1.6494298844970846E1
1.6151000605305907E1 -1.6520879035406498E1
1.6168107978062437E1 -1.654831737721286E1
1.618487455470144E1 -1.6576570016865638E1
1.6182456860440407E1 -1.6640479376324997E1
1.6210470112063483E1 -1.6654813087053157E1
1.6266368458886845E1 -1.663970682132445E1
1.6286380920113373E1 -1.6664646103690043E1
1.6306598943929824E1 -1.6689427042808173E1
1.632717835771824E1 -1.6713928633809736E1
1.634821813938683E1 -1.6738078193761545E1
1.6369789872413275E1 -1.6761821836563403E1
1.6431231151916883E1 -1.6772937635659137E1
1.637867242413206E1 -1.689917937460965E1
1.6458221272302698E1 -1.6820046089691445E1
1.6456712410444908E1 -1.6879811455100704E1
1.6487267026856685E1 -1.6875897001304274E1
1.6513816214456075E1 -1.6891680957805743E1
1.6500778391032824E1 -1.6973154469955517E1
1.652941646241899E1 -1.6978612459323966E1
1.6535378260364165E1 -1.7061786023326068E1
1.6568429651407314E1 -1.7027050090733084E1
1.6592066460889374E1 -1.7049777556235487E1
1.6619085035192146E1 -1.706791964583204E1
1.663614809475349E1 -1.708653550107064E1
1.6657887106612133E1 -1.711137889815527E1
1.6681300513166942E1 -1.7134140359912173E1
1.670600315225945E1 -1.7155109316299768E1
1.67316233512752E1 -1.717469723597239E1
1.6743348434019836E1 -1.7202844733238297E1
1.679372196231862E1 -1.719480917935422E1
1.6815737271790443E1 -1.7217519703176112E1
1.676951593350141E1 -1.7355945772657215E1
1.6793061422305716E1 -1.737017489104445E1
1.6816398948215088E1 -1.7386164390385506E1
1.6839800686677922E1 -1.739594616450871E1
1.6860020754919145E1 -1.7420074844552815E1
1.6879419727996876E1 -1.7447806490716722E1
1.6899186515599396E1 -1.74747310613109E1
1.6919266827441923E1 -1.750089268324687E1
1.6939622529299555E1 -1.7526291463234628E1
1.696022060218667E1 -1.7550949321891395E1
1.6981020417318607E1 -1.7574919374443894E1
1.7002024014359215E1 -1.7598194268542088E1
1.702318989703662E1 -1.762084437540891E1
1.7044501056968727E1 -1.7642918593027616E1
1.7061629309418777E1 -1.7681443955900686E1
1.715021942806166E1 -1.75830916398784E1
1.716867625058457E1 -1.7607169728433927E1
1.718692578537281E1 -1.7631522700696216E1
1.7205056956164476E1 -1.7656109425145644E1
1.7223010609547295E1 -1.7681002637571005E1
1.7240856161131553E1 -1.7706168120570254E1
1.7258641222355134E1 -1.7731575652066685E1
1.7276325574932383E1 -1.7757290008862437E1
1.7293968429084387E1 -1.7783268025060156E1
1.731158315950742E1 -1.7809509997052473E1
1.7329234037704396E1 -1.7835945584818166E1
1.734688354593923E1 -1.786263664644122E1
1.7364610109556395E1 -1.788947537016376E1
1.7382394271833547E1 -1.7916499565665063E1
1.7400266213069457E1 -1.794365843377845E1
1.741669752510371E1 -1.7974650029765638E1
1.7432034497467843E1 -1.801042465141181E1
1.7478051856395787E1 -1.7991087684895728E1
1.7501026375949973E1 -1.800966226681918E1
1.7524035492739486E1 -1.8028325350474773E1
1.754701613714417E1 -1.804715754006405E1
1.7566575560382944E1 -1.807015873260349E1
1.759071369213251E1 -1.8094261523572932E1
1.7609046170203097E1 -1.8118878397681208E1
1.7627369039029453E1 -1.8143558197398214E1
1.76457044530417E1 -1.8168274955163437E1
1.7663798369381016E1 -1.8193352983955705E1
1.768192663117889E1 -1.8218467473861157E1
1.7700374927119853E1 -1.8243207353915476E1
1.7719103736441273E1 -1.8267593115287983E1
1.7737655090259974E1 -1.829226228393616E1
1.7756123178661518E1 -1.8317102425711678E1
1.777462717356736E1 -1.834192795361358E1
1.7793158068190035E1 -1.8366773222554375E1
1.7811722342240287E1 -1.8391606352274017E1
1.783033191541596E1 -1.841641799529792E1
1.784898375059632E1 -1.844120064488463E1
1.7867647699816768E1 -1.8466032307875565E1
1.7886347703201192E1 -1.849084985322089E1
1.7905089509725958E1 -1.8515652680115963E1
1.7923853309309937E1 -1.8540464212604522E1
1.794264986140152E1 -1.856528356059456E1
1.7996333547882873E1 -1.8522836895240747E1
1.8014757522288207E1 -1.8546256387005705E1
1.8033386996522957E1 -1.8569436534544405E1
1.8032736986834816E1 -1.8646222597381794E1
1.8051238773782E1 -1.8667723302349646E1
1.8069798894388285E1 -1.8693194732517483E1
1.808847919081779E1 -1.8718365536502038E1
1.810724059528158E1 -1.8743333950390163E1
1.8126089929451997E1 -1.876805278073265E1
1.8145005406620232E1 -1.8792573280980594E1
1.816398077184054E1 -1.8816885465324635E1
1.8183016476321555E1 -1.8840929454742927E1
1.8202096950758815E1 -1.8864786356524267E1
1.8221217115907375E1 -1.8888410634563698E1
1.826293039581582E1 -1.8836922599903254E1
1.828251697283724E1 -1.8858102954081428E1
1.8302214155725032E1 -1.8879019362808425E1
1.83220520468776E1 -1.889962398792878E1
1.8341991309201482E1 -1.8919984788422752E1
1.8362074029347845E1 -1.8940041440313216E1
1.8382274647817464E1 -1.8959848395398158E1
1.8402618892704307E1 -1.8979380760594378E1
1.8423084771056903E1 -1.899868852692069E1
1.844324521515201E1 -1.9018498445010724E1
1.846223048396008E1 -1.9040243839780786E1
1.8481189246369926E1 -1.90618111435327E1
1.849880861993197E1 -1.9085387348314917E1
1.8515169375249585E1 -1.9111601328111398E1
1.8532375211138643E1 -1.9136593067056847E1
1.847058801453582E1 -1.9135937882564864E1
1.849414072025941E1 -1.915749015434231E1
1.8517837021986633E1 -1.917896851173679E1
1.854161798608821E1 -1.9200354156692587E1
1.8565453594206783E1 -1.9221639906261004E1
1.858943272264785E1 -1.924282491008505E1
1.8613476866812896E1 -1.9263892227604785E1
1.8637535751215506E1 -1.9284831577460817E1
1.8661609044650696E1 -1.9305637210357514E1
1.8685688200127437E1 -1.932630261763874E1
1.870945998688878E1 -1.9346849522794574E1
1.8731642891342155E1 -1.9367434381786108E1
1.8753888447465606E1 -1.9387938796185928E1
1.877623113163902E1 -1.940835321368571E1
1.879861738875407E1 -1.942867212332253E1
1.8821106222734585E1 -1.94488818402208E1
1.884359773722506E1 -1.9468982504016505E1
1.886612686118011E1 -1.9488960824379394E1
1.888867634719394E1 -1.9508810404017254E1
1.8910976128471773E1 -1.952860451863904E1
1.893175189655907E1 -1.9548684894143133E1
1.8948856666455622E1 -1.9569477085381035E1
1.896512573130301E1 -1.9590466323358786E1
1.8979668860390476E1 -1.9663016232487703E1
1.8998174823788087E1 -1.9684146657299173E1
1.9018316237561915E1 -1.9698519947841245E1
1.9037557222748394E1 -1.971715882579756E1
1.9058060582457703E1 -1.9730700206865325E1
1.9071344586689804E1 -1.976775523210605E1
1.90872587410838E1 -1.9799003727106264E1
1.910636462560374E1 -1.9820902434151236E1
1.9136968459673504E1 -1.981431046777784E1
1.915347466603603E1 -1.9846619476685504E1
1.9179324262028736E1 -1.9911680701429493E1
1.920565496374295E1 -1.9843773495105783E1
1.9242251211080863E1 -1.9833644853008927E1
1.9339452688948473E1 -2.0018259978902172E1
1.9305512029500225E1 -1.9990061423036096E1
1.924184762154682E1 -1.9954976768077966E1
1.924489614082428E1 -1.9937864008099876E1
1.926919946801785E1 -1.9878951330054285E1
1.923651523775347E1 -1.9857059483948113E1
1.9185819713084925E1 -1.9828106639210567E1
1.919505794802603E1 -1.9913233044590413E1
1.9197865447513447E1 -1.9915952524422767E1
1.9345193921152255E1 -2.004013628924191E1
1.9364458715481145E1 -2.005953640349141E1
1.94002736831604E1 -2.0079460695421275E1
1.939703805167032E1 -2.010808591961688E1
1.941674566799517E1 -2.0127532790844754E1
1.9442970662250474E1 -2.0146605068117875E1
1.9473511829181355E1 -2.0165243850402213E1
1.949401686477932E1 -2.0186039684839628E1
1.950871843631259E1 -2.020512281700125E1
1.9521359845903937E1 -2.022381364928861E1
1.9539430903560234E1 -2.024322029449085E1
1.956087443326646E1 -2.0263452531751255E1
1.9581401403951453E1 -2.0283959438991506E1
1.9449209961490432E1 -2.0275874171365967E1
1.946514049202318E1 -2.0295195805506125E1
1.9483903212503776E1 -2.0315363065775834E1
1.9505268885312272E1 -2.033637221680026E1
1.9529001901026884E1 -2.035817165070215E1
1.9554845573723853E1 -2.03806523953379E1
1.9582516154763557E1 -2.0403675762553576E1
1.967865165457034E1 -2.0441265211820653E1
1.967649546740096E1 -2.0455660907119313E1
1.979934300522304E1 -2.0488895948712965E1
1.9635006603923248E1 -2.0477670024335342E1
1.9680519557361748E1 -2.0509594819918615E1
1.9725899328628998E1 -2.0539062989594115E1
1.977082500735051E1 -2.0565885120539075E1
1.9813869008311464E1 -2.05898270557397E1
1.984856690286121E1 -2.0611189027380448E1
1.9876289882422107E1 -2.063115837635144E1
1.9888858584924982E1 -2.0650302481225385E1
1.9903057163199826E1 -2.066931000278405E1
1.991885608097717E1 -2.0688278055339175E1
1.993618641608778E1 -2.070726175934933E1
1.995493684986711E1 -2.072628000664848E1
1.997164811920851E1 -2.0745299554965754E1
1.9985133278741987E1 -2.0764231793374258E1
1.9994204128960188E1 -2.078297246986074E1
1.9999469411348702E1 -2.080096656142443E1
2.0030823420107833E1 -2.0822289053823795E1
2.006496521513587E1 -2.083934453993069E1
2.0084415381083595E1 -2.0859299109136902E1
2.010054117819836E1 -2.0879634014254755E1
2.011854093613338E1 -2.0899814753412233E1
2.013801847222784E1 -2.0919779086342025E1
2.0015264665174108E1 -2.086326537411907E1
2.003861693981035E1 -2.088518357201958E1
2.0053242677763055E1 -2.0902277826718294E1
2.007595649614431E1 -2.0925662961079176E1
2.0103627487769845E1 -2.0952235289706618E1
2.012987293294913E1 -2.0977303487652364E1
2.014991239689773E1 -2.0998164104303825E1
2.016234702319057E1 -2.101408756225044E1
2.017184428296387E1 -2.1027700825470404E1
2.0196402991247187E1 -2.1051329650148762E1
2.0234745073179283E1 -2.1085037853479065E1
2.0365848266566655E1 -2.1149925944216054E1
2.023156577848633E1 -2.1120000377530094E1
2.029528650204625E1 -2.117129927608689E1
2.0389974246736593E1 -2.1206584053861906E1
2.0472624918286854E1 -2.1465107841067503E1
2.0428531760927058E1 -2.124503064936635E1
2.0482424296690677E1 -2.130393621682809E1
2.0487622785447765E1 -2.14202613695463E1
2.053276637207031E1 -2.1507553952553685E1
2.0535050898175612E1 -2.1355714497571192E1
2.0588511820411277E1 -2.1535947490226825E1
2.058133164629421E1 -2.1493400817668743E1
2.0590640237353366E1 -2.1489195784344545E1
2.0611158954133916E1 -2.1544478084166826E1
2.0660068596396663E1 -2.157948442515395E1
2.0653006907838428E1 -2.1488572076700695E1
2.083993688772219E1 -2.16519734625085E1
2.0982027776047605E1 -2.1520563974820465E1
2.072289739473605E1 -2.1298424147465376E1
2.058080233383683E1 -2.131398056204064E1
2.0686855197956316E1 -2.1507683903426937E1
2.0616053238807265E1 -2.147941488703504E1
2.066593153367485E1 -2.1526412871190683E1
2.0653220107866307E1 -2.154669728544762E1
2.0639994597548327E1 -2.154643436868677E1
2.063943848876031E1 -2.1547331174696087E1
2.0607193747842633E1 -2.1519149034203114E1
2.0605011941798868E1 -2.151426082199109E1
2.062601737175795E1 -2.154053326663703E1
2.0806319737072627E1 -2.169158681665354E1
2.0801961088353767E1 -2.1706665459483624E1
2.0801652430233325E1 -2.1721008727989883E1
2.0848654881653417E1 -2.174463789076383E1
2.0817359495598776E1 -2.174962954643124E1
2.086123055370748E1 -2.177706127787706E1
2.089859332105609E1 -2.180061762600934E1
2.0909284591832538E1 -2.1818342418036437E1
2.0921366500901033E1 -2.1836230050796857E1
2.0934250713303495E1 -2.1854265319108922E1
2.0948194315444933E1 -2.1872530176446528E1
2.096319543785275E1 -2.1891056338865525E1
2.097926552477745E1 -2.1909862762176672E1
2.0996400326388887E1 -2.1928948494309637E1
2.1014543039948837E1 -2.194828597844893E1
2.102727530890904E1 -2.1965775505213983E1
2.1025668040995466E1 -2.1977766688831302E1
2.102452150567462E1 -2.198875663967322E1
2.102386725493269E1 -2.1998860544471423E1
2.102393763489111E1 -2.200832520618521E1
2.102454529428468E1 -2.201713444856897E1
2.102581651372666E1 -2.202546239390286E1
2.1027734189909783E1 -2.2033398908274982E1
2.1026404218049493E1 -2.2038158800394005E1
2.102505377964781E1 -2.204167083434366E1
2.1273812343558895E1 -2.2160604212982065E1
2.128455325051774E1 -2.217903024481672E1
2.1295295215898538E1 -2.2197256320947726E1
2.1306003886139862E1 -2.2215291914375328E1
2.1316733045255912E1 -2.223315415983099E1
2.132746182751574E1 -2.2250848663728696E1
2.132520648446678E1 -2.2266032506742388E1
2.134775298327388E1 -2.228521084904832E1
2.1370067541637503E1 -2.230419866137573E1
2.139210358137485E1 -2.2323007527666395E1
2.1409258659729286E1 -2.2341214453946126E1
2.1423730056881602E1 -2.235912081317929E1
2.1428058323918297E1 -2.2374632416579548E1
2.1439965308562698E1 -2.2392327627884306E1
2.145240865251937E1 -2.240998181761527E1
2.1465328083393384E1 -2.2427617541793108E1
2.147862425192051E1 -2.244524037743876E1
2.1492236782438518E1 -2.2462857888780146E1
2.1506106575818677E1 -2.2480473546811474E1
2.1520213078101936E1 -2.24980941005891E1
2.153448257018721E1 -2.251571408044823E1
2.1548883776696986E1 -2.2533328794726362E1
2.156342813420392E1 -2.2550944252196892E1
2.1578047896528382E1 -2.2568554790329138E1
2.1592765120234915E1 -2.258616694189779E1
2.1607487810017197E1 -2.260375865790385E1
2.162225752892143E1 -2.262134265141762E1
2.1637051158340977E1 -2.2638916806842644E1
2.165184501255569E1 -2.265647097529959E1
2.1666638921838818E1 -2.2674011199628488E1
2.168145894130737E1 -2.2691538399214064E1
2.169622851260916E1 -2.2709045882202066E1
2.171098398593846E1 -2.272653143828421E1
2.172570304502619E1 -2.274399202532456E1
2.1740401570243982E1 -2.276142860958105E1
2.175504508613811E1 -2.2778841735758103E1
2.1769701490185557E1 -2.2796237459884445E1
2.178426467607917E1 -2.2813595790866906E1
2.1798776765107302E1 -2.2830919731721806E1
2.1813263323383207E1 -2.2848222410462352E1
2.1827758440533486E1 -2.286551047611039E1
2.1842146501207033E1 -2.288275350422205E1
2.185649445649388E1 -2.2899963051770996E1
2.187085183570721E1 -2.2917158315218188E1
2.1885173509050226E1 -2.2934324696068906E1
2.189939088640068E1 -2.2951439092408144E1
2.1913623864099804E1 -2.296853969152918E1
2.1927757326856074E1 -2.298558780568866E1
2.1941943980506473E1 -2.3002633132448402E1
2.195604554885856E1 -2.3019630796682897E1
2.1970132877609036E1 -2.3036603655226884E1
2.1984205845633987E1 -2.3053550213912793E1
2.1998234102505286E1 -2.3070459505675142E1
2.2012258551463102E1 -2.308734401018722E1
2.2026230802902965E1 -2.3104191527418692E1
2.2040243293902645E1 -2.3121032720407324E1
2.2054194297234112E1 -2.3137822681695162E1
2.2068141771838214E1 -2.31545953273586E1
2.2082083001994814E1 -2.317133767257517E1
2.2096038421643918E1 -2.318806456718256E1
2.2109969147182493E1 -2.3204764676695532E1
2.2123865640617524E1 -2.322142894427272E1
2.2137833097399664E1 -2.3238097069499165E1
2.215176138358172E1 -2.3254728178614368E1
2.2165705775561424E1 -2.3271350474966443E1
2.217965947921635E1 -2.3287943787143625E1
2.2193613458986476E1 -2.330452534391332E1
2.2207584147004898E1 -2.3321094742845535E1
2.222153863525663E1 -2.3337630400882965E1
2.2235520620027852E1 -2.335416138572894E1
2.2249566887833492E1 -2.3370705931620186E1
2.22636066792664E1 -2.338722113280021E1
2.2277638473617642E1 -2.3403723030924883E1
2.229172014276465E1 -2.3420226867068603E1
2.2305792806992446E1 -2.3436706741452888E1
2.2319930866914323E1 -2.345320142408176E1
2.2334078249480676E1 -2.346968976518918E1
2.23482629186861E1 -2.3486173542705803E1
2.236246503233204E1 -2.3502657547598968E1
2.2376684035110234E1 -2.351914052628383E1
2.2390962933299175E1 -2.353562742075815E1
2.240526407626272E1 -2.3552125356349354E1
2.2419599883196533E1 -2.3568612868531492E1
2.2433959279388777E1 -2.3585113521427505E1
2.2516785401125166E1 -2.363131995168927E1
2.2531797924473803E1 -2.3648325696741466E1
2.254682482088986E1 -2.366533359413326E1
2.2561886778526812E1 -2.368233942526397E1
2.2576955270075672E1 -2.369934399592437E1
2.259201114421702E1 -2.3716343774611158E1
2.260428397395264E1 -2.3732127954958056E1
2.2615145160128822E1 -2.374722911599735E1
2.2626140937582353E1 -2.3762299277794867E1
2.263702284102289E1 -2.377722234576648E1
2.2647822247262923E1 -2.3792003853444108E1
2.2658729777261442E1 -2.380674515105675E1
2.266963122908121E1 -2.3821388987871476E1
2.2680682634001332E1 -2.383602993685325E1
2.269148108386115E1 -2.3850418519184323E1
2.270247412960341E1 -2.3864821430510695E1
2.2694802229745537E1 -2.3870534919620887E1
2.271125135446361E1 -2.3888437781998373E1
2.2727695267787556E1 -2.390634046952962E1
2.2744197232613253E1 -2.392426434420698E1
2.2760754207098003E1 -2.3942215979980862E1
2.277722223929671E1 -2.3960108475237575E1
2.2793763001008713E1 -2.3978039707274522E1
2.2810259459775448E1 -2.3995936647123376E1
2.2826787298871853E1 -2.4013840096657383E1
2.284323859532332E1 -2.4031702797605288E1
2.2859701657689712E1 -2.404956267261279E1
2.2876243307139656E1 -2.406745306051829E1
2.28926430130022E1 -2.408525670265673E1
2.2907212682349E1 -2.4102019972964634E1
2.292146971431562E1 -2.4118608161322783E1
2.293573880505305E1 -2.413519194967228E1
2.2950056546973567E1 -2.4151795453599103E1
2.2964363593122673E1 -2.4168390667257984E1
2.2978689830716306E1 -2.418498635646444E1
2.299304381944363E1 -2.4201593220682323E1
2.3007419052442625E1 -2.421820533787365E1
2.302178809399859E1 -2.4234810711425173E1
2.303621194592451E1 -2.4251436718080193E1
2.305061967485007E1 -2.4268056109017028E1
2.3065061883747326E1 -2.4284680844153836E1
2.3079499824199342E1 -2.430130831640876E1
2.3093977221629693E1 -2.4317943375975908E1
2.3108440268487527E1 -2.433457008073408E1
2.3122939457877123E1 -2.4351214355865835E1
2.3137432029191473E1 -2.436785268852134E1
2.315194876771771E1 -2.438449502045745E1
2.3166490242907393E1 -2.440114705197748E1
2.3181006209593487E1 -2.441778557112737E1
2.319554111124561E1 -2.443442659615791E1
2.3210108032008925E1 -2.445107936806114E1
2.3224666039620846E1 -2.4467732452517303E1
2.3239256527508804E1 -2.448439435180377E1
2.3253847309994796E1 -2.450105093671334E1
2.3268429683061456E1 -2.451770077044581E1
2.3283012123032247E1 -2.453435042564258E1
2.329760632590865E1 -2.4551003746599925E1
2.331220565724681E1 -2.456764859645692E1
2.3326846716364408E1 -2.458431888357556E1
2.334141752888783E1 -2.4600941645651396E1
2.33560387319754E1 -2.4617590674640443E1
2.33706330963839E1 -2.4634226812433944E1
2.338528145801458E1 -2.465088833419034E1
2.3399877201061592E1 -2.466751353420526E1
2.3414498495798536E1 -2.468415201595409E1
2.3429131981216806E1 -2.4700789361054678E1
2.3443735148998137E1 -2.4717413053713457E1
2.3458378477551044E1 -2.4734052541474348E1
2.347297547728117E1 -2.4750661484141077E1
2.3487600597873303E1 -2.4767282560826974E1
2.350221032571915E1 -2.4783891206608125E1
2.3516861218394034E1 -2.480052200658071E1
2.3331315514048345E1 -2.447154378480373E1
2.334627062357286E1 -2.4488047623837314E1
2.3361293743588302E1 -2.4504621042400714E1
2.337631215265227E1 -2.45212237021665E1
2.3391245029273783E1 -2.4537754277949507E1
2.3406254662789326E1 -2.4554384463508132E1
2.342125130864717E1 -2.457096981114077E1
2.3436205371371685E1 -2.458759397495211E1
2.3451223428460544E1 -2.460426621223324E1
2.346613696982995E1 -2.462083103485047E1
2.3481083092268197E1 -2.4637431679044667E1
2.349606499330504E1 -2.4654108333814396E1
2.3511001405548747E1 -2.467076758479947E1
2.352592607866685E1 -2.4687385660398302E1
2.3540919987235604E1 -2.470413548849823E1
2.355582977836555E1 -2.472077449069193E1
2.3570756401116984E1 -2.473742180035004E1
2.3585654004386523E1 -2.4754093714536427E1
2.3600557765528592E1 -2.4770748085892844E1
2.3615497589675293E1 -2.4787491557902854E1
2.363039674222752E1 -2.4804189419623683E1
2.3645297416351347E1 -2.4820869034900507E1
2.3660088722754764E1 -2.4837443351271464E1
2.367500377127229E1 -2.4854173723117512E1
2.3689881270689938E1 -2.4870884917395372E1
2.3704727644026313E1 -2.4887533414710433E1
2.3719568639168337E1 -2.49042458339292E1
2.3734402881687867E1 -2.4920909226630247E1
2.3749213700980018E1 -2.493754940527027E1
2.3764078119604807E1 -2.4954272912705132E1
2.3778907525164342E1 -2.4970993018164194E1
2.3793666645891726E1 -2.498759896791508E1
2.3808512979972093E1 -2.5004354450617726E1
2.382328865753505E1 -2.5021016766459518E1
2.383804610985235E1 -2.503764823230562E1
2.3852826682734403E1 -2.5054333829798324E1
2.3867566115650536E1 -2.5070962196847226E1
2.388238923215958E1 -2.5087718294787745E1
2.3897162361762245E1 -2.510441054069838E1
2.3911876353206516E1 -2.5121015530862746E1
2.3926572730519204E1 -2.513764690945445E1
2.3941279092497926E1 -2.515426167555917E1
2.395600581523368E1 -2.5170924676145894E1
2.397073358712526E1 -2.5187617218492395E1
2.3985409292115115E1 -2.5204211150699017E1
2.4000091516443923E1 -2.5220881423078257E1
2.4014784409626056E1 -2.5237501763001614E1
2.402945413279859E1 -2.5254146884033197E1
2.404409784304858E1 -2.527073706945026E1
2.4058746615782532E1 -2.5287355051120766E1
2.4073376670169264E1 -2.530395597640776E1
2.4088043680943247E1 -2.5320589706182208E1
2.4102675434568074E1 -2.5337235092664034E1
2.4117265123867103E1 -2.5353786241659453E1
2.413185035269451E1 -2.537034174696774E1
2.4146471873562202E1 -2.538694067810086E1
2.4161018568209364E1 -2.5403472413570984E1
2.417560773960679E1 -2.5420093620790166E1
2.4190235519341787E1 -2.54367481052601E1
2.4204752719369267E1 -2.5453253838752E1
2.4219334367892877E1 -2.5469853229016895E1
2.4233814114424874E1 -2.548632484896062E1
2.4248382123635E1 -2.5502944829143573E1
2.426292081023912E1 -2.5519474129316322E1
2.427740707132976E1 -2.5536018850462824E1
2.4291912587830428E1 -2.5552559032251924E1
2.4306407481157816E1 -2.5569064419040206E1
2.432092027137122E1 -2.558562024710196E1
2.4335388134624786E1 -2.5602118686893583E1
2.4349862892565643E1 -2.5618631810987814E1
2.4364332775218426E1 -2.5635155163622223E1
2.4378766551397682E1 -2.5651672231381873E1
2.4393197435149425E1 -2.566814663640619E1
2.4407632542254117E1 -2.5684637181928274E1
2.4422049960373787E1 -2.570111483178375E1
2.4436468006290177E1 -2.5717622354668826E1
2.445087233577312E1 -2.5734097499348724E1
2.4465296165090997E1 -2.575060903539356E1
2.4479659791759882E1 -2.576704919618954E1
2.449404951774829E1 -2.578356506449026E1
2.4508424060433484E1 -2.5800007751573144E1
2.4522761874307204E1 -2.5816466844694155E1
2.4537144358712666E1 -2.583295573534329E1
2.455147630003623E1 -2.5849374859717525E1
2.4565831728151043E1 -2.586585659999018E1
2.4580128467173907E1 -2.5882253166651832E1
2.4594467122554097E1 -2.5898741315115466E1
2.4608785420075556E1 -2.5915178080650712E1
2.4623038484990595E1 -2.5931540123786473E1
2.463736885691381E1 -2.5948006110160318E1
2.4651649533599713E1 -2.5964464576061058E1
2.4665935407462758E1 -2.5980902661883523E1
2.4680214417906015E1 -2.5997345285024693E1
2.469448048648041E1 -2.60137769583916E1
2.47086688358582E1 -2.6030102391046277E1
2.47229488923644E1 -2.6046564288575144E1
2.473722437800791E1 -2.606304408792039E1
2.475141455330888E1 -2.6079407812124742E1
2.4765626338726836E1 -2.6095831471033954E1
2.4779829585541894E1 -2.6112216446934276E1
2.4794053520104324E1 -2.6128665379464696E1
2.4808210595010554E1 -2.6144995707660723E1
2.4822372133724404E1 -2.616138875242333E1
2.48366057259476E1 -2.6177840322931814E1
2.4850759714867095E1 -2.619425367372282E1
2.486490041712437E1 -2.621060476983217E1
2.4879037436377793E1 -2.6226988423099737E1
2.4893236141491574E1 -2.62434549750657E1
2.490734707930822E1 -2.6259823674521616E1
2.4921451891910863E1 -2.6276192466308974E1
2.4935607049763405E1 -2.62926575275394E1
2.4949736171669578E1 -2.630906120374206E1
2.4963780789465375E1 -2.6325376486066325E1
2.4977880607755413E1 -2.634176648009427E1
2.499195680818675E1 -2.635817061036279E1
2.5006052068111007E1 -2.6374541546034358E1
2.502011164939877E1 -2.639097624061046E1
2.5034179383590757E1 -2.640732334921676E1
2.5048226896166085E1 -2.64237393490821E1
2.5062266966404266E1 -2.6440119556743895E1
2.5076334453497118E1 -2.645653984094401E1
2.5090379540806605E1 -2.6472950850238977E1
2.5104381042109782E1 -2.6489317522820063E1
2.5118402906507622E1 -2.6505729148788923E1
2.5132413833506046E1 -2.6522122141443457E1
2.5146419780097304E1 -2.6538521699554337E1
2.516038118707456E1 -2.655488989416949E1
2.517438008248716E1 -2.6571299838141258E1
2.5188395178181676E1 -2.65877314100696E1
2.520236409361063E1 -2.6604155026712192E1
2.5216281686725296E1 -2.6620481476337062E1
2.523027306482151E1 -2.663695291461149E1
2.5244223433375115E1 -2.6653361429199624E1
2.5258133546142723E1 -2.6669736901421253E1
2.527207837419515E1 -2.668615548118244E1
2.528598995437674E1 -2.6702539432129416E1
2.5299944026535794E1 -2.671899829315558E1
2.5313836827711064E1 -2.6735398257722906E1
2.5327744833172133E1 -2.6751833297837493E1
2.534165669127309E1 -2.676824812668137E1
2.5355540337541548E1 -2.678467076048892E1
2.536943730046718E1 -2.680109770977628E1
2.5383280899499358E1 -2.681751958289503E1
2.5397163988489055E1 -2.6833953885257063E1
2.5411020913222607E1 -2.685037710248021E1
2.542488796292667E1 -2.686683304537533E1
2.543870836986187E1 -2.68832085928225E1
2.5452551059396775E1 -2.689967038425865E1
2.5466417962923497E1 -2.6916143417293295E1
2.548022378253699E1 -2.6932586613690326E1
2.549407061089664E1 -2.6949059655718973E1
2.5507826904084393E1 -2.696544618647238E1
2.552166227228751E1 -2.698189944057755E1
2.553547462360463E1 -2.6998388244747947E1
2.5549225635397164E1 -2.701482614111355E1
2.556306021509233E1 -2.7031342930279884E1
2.5576797006316358E1 -2.7047767109585493E1
2.5590606350163252E1 -2.706424690415719E1
2.5604338622036046E1 -2.7080712715565323E1
2.5618080381299E1 -2.7097163083598822E1
2.563188260335401E1 -2.7113694323508607E1
2.5645637731062955E1 -2.7130168069221344E1
2.565935199365694E1 -2.714663996295216E1
2.5673088453045317E1 -2.7163128454824875E1
2.5686849599230616E1 -2.7179663066111704E1
2.570053272021034E1 -2.7196104358849176E1
2.5714270725791135E1 -2.721262570067592E1
2.5727971486931803E1 -2.722912201873305E1
2.5741676599655452E1 -2.7245626799721382E1
2.57553808973005E1 -2.7262132549365386E1
2.576903427493363E1 -2.7278602327332138E1
2.5782751415008644E1 -2.7295131200896147E1
2.579641934054306E1 -2.7311636679162238E1
2.581010699013995E1 -2.7328185829486543E1
2.582374729678952E1 -2.7344687692084477E1
2.583741391646969E1 -2.7361170707465817E1
2.585107656506868E1 -2.737772856029912E1
2.5864745116762847E1 -2.739427232367409E1
2.5878352967362275E1 -2.741077758476098E1
2.589200856809054E1 -2.7427335366269055E1
2.5905651095630255E1 -2.7443852091435406E1
2.5919261033390352E1 -2.7460368040222964E1
2.5932888714731693E1 -2.747695190903079E1
2.594649366148165E1 -2.7493466019685943E1
2.5960123319220706E1 -2.7510027788312538E1
2.597372088982705E1 -2.7526560841032087E1
2.5987339541490773E1 -2.754311561214323E1
2.600092685321061E1 -2.7559665240142802E1
2.601452016762504E1 -2.757623720859182E1
2.602810177698492E1 -2.7592772261801095E1
2.604168235354002E1 -2.760932885583066E1
2.605525607066098E1 -2.7625881536800588E1
2.6068836048577776E1 -2.764248867531517E1
2.608239754758524E1 -2.765901474847394E1
2.6095935837208266E1 -2.767558863624176E1
2.6109481509408624E1 -2.769207519718593E1
2.6122599064187312E1 -2.7707005537426927E1
2.613563851626142E1 -2.7721822345665327E1
2.6148737876741514E1 -2.7736732466617163E1
2.6161766712498164E1 -2.775153036389032E1
2.617484679779606E1 -2.776649131028779E1
2.618792298098499E1 -2.7781387382533712E1
2.620099496571571E1 -2.779633133582598E1
2.62140346811554E1 -2.781122526337986E1
2.624001005998389E1 -2.775913635851207E1
2.625334211800638E1 -2.7779039079980674E1
2.626669762088673E1 -2.7799031671521067E1
2.6280085719249215E1 -2.7818897955814155E1
2.6293504118199603E1 -2.783873034725016E1
2.6306973681710133E1 -2.785867971020184E1
2.632050310212032E1 -2.7878929027165285E1
2.6334022654140483E1 -2.7898772293217597E1
2.6347599222759364E1 -2.7918714272134345E1
2.6361201023872237E1 -2.793856042163221E1
2.637487974799455E1 -2.795864308314495E1
2.638855221810095E1 -2.7978568972691978E1
2.6402248324610646E1 -2.7998286408111895E1
2.6416027480469637E1 -2.801828895320388E1
2.6428989831120226E1 -2.8034534255905925E1
2.6441922521634382E1 -2.805068250690647E1
