%%MatrixMarket matrix array real general
%
1000 1
1
1.4994994994994995
1.998998998998999
2.4984984984984986
2.997997997997998
3.4974974974974975
3.9969969969969967
4.496496496496496
4.995995995995996
5.495495495495495
5.994994994994994
6.494494494494494
6.9939939939939935
7.493493493493493
7.992992992992992
8.492492492492492
8.991991991991991
9.491491491491491
9.99099099099099
1.049049049049049E1
1.098998998998999E1
1.148948948948949E1
1.1988988988988986E1
1.2488488488488489E1
1.2987987987987987E1
1.3487487487487488E1
1.3986986986986986E1
1.4486486486486488E1
1.4985985985985986E1
1.5485485485485482E1
1.5984984984984985E1
1.6484484484484483E1
1.6983983983983983E1
1.7483483483483482E1
1.7982982982982982E1
1.848248248248248E1
1.8981981981981985E1
1.948148148148148E1
1.9980980980980977E1
2.048048048048048E1
2.0979979979979976E1
2.147947947947948E1
2.1978978978978976E1
2.247847847847848E1
2.2977977977977975E1
2.347747747747748E1
2.3976976976976974E1
2.4476476476476478E1
2.4975975975975974E1
2.5475475475475474E1
2.5974974974974977E1
2.6474474474474473E1
2.6973973973973976E1
2.7473473473473472E1
2.7972972972972975E1
2.847247247247247E1
2.8971971971971968E1
2.947147147147147E1
2.9970970970970967E1
3.047047047047047E1
3.0969969969969966E1
3.146946946946947E1
3.1968968968968966E1
3.246846846846847E1
3.2967967967967965E1
3.3467467467467465E1
3.3966966966966964E1
3.4466466466466464E1
3.4965965965965964E1
3.546546546546546E1
3.596496496496496E1
3.646446446446446E1
3.696396396396396E1
3.746346346346346E1
3.796296296296296E1
3.846246246246246E1
3.896196196196196E1
3.946146146146146E1
3.996096096096096E1
4.046046046046046E1
4.095995995995996E1
4.145945945945945E1
4.195895895895895E1
4.245845845845845E1
4.295795795795795E1
4.345745745745746E1
4.395695695695695E1
4.445645645645645E1
4.495595595595595E1
4.545545545545544E1
4.595495495495495E1
4.645445445445445E1
4.695395395395395E1
4.745345345345344E1
4.795295295295295E1
4.845245245245245E1
4.895195195195195E1
4.945145145145144E1
4.995095095095094E1
5.045045045045045E1
5.0949949949949946E1
5.144944944944944E1
5.194894894894894E1
5.2448448448448445E1
5.2947947947947945E1
5.344744744744744E1
5.394694694694694E1
5.444644644644644E1
5.4945945945945944E1
5.5445445445445436E1
5.5944944944944936E1
5.6444444444444436E1
5.6943943943943935E1
5.744344344344344E1
5.7942942942942935E1
5.8442442442442434E1
5.8941941941941934E1
5.944144144144144E1
5.994094094094093E1
6.044044044044043E1
6.093993993993993E1
6.1439439439439425E1
6.193893893893893E1
6.243843843843843E1
6.293793793793793E1
6.3437437437437424E1
6.393693693693693E1
6.443643643643644E1
6.493593593593593E1
6.543543543543542E1
6.593493493493493E1
6.643443443443444E1
6.693393393393393E1
6.743343343343342E1
6.793293293293293E1
6.843243243243244E1
6.893193193193193E1
6.943143143143142E1
6.993093093093093E1
7.043043043043042E1
7.092992992992993E1
7.142942942942942E1
7.192892892892893E1
7.242842842842842E1
7.292792792792793E1
7.342742742742742E1
7.392692692692692E1
7.442642642642642E1
7.492592592592591E1
7.542542542542542E1
7.592492492492492E1
7.642442442442442E1
7.692392392392391E1
7.742342342342342E1
7.792292292292292E1
7.842242242242241E1
7.89219219219219E1
7.942142142142141E1
7.992092092092092E1
8.042042042042041E1
8.09199199199199E1
8.141941941941941E1
8.191891891891892E1
8.241841841841843E1
8.29179179179179E1
8.341741741741741E1
8.39169169169169E1
8.441641641641641E1
8.49159159159159E1
8.541541541541541E1
8.591491491491492E1
8.64144144144144E1
8.69139139139139E1
8.74134134134134E1
8.79129129129129E1
8.841241241241241E1
8.89119119119119E1
8.941141141141141E1
8.99109109109109E1
9.04104104104104E1
9.09099099099099E1
9.140940940940939E1
9.19089089089089E1
9.24084084084084E1
9.29079079079079E1
9.34074074074074E1
9.39069069069069E1
9.44064064064064E1
9.490590590590591E1
9.540540540540539E1
9.59049049049049E1
9.640440440440439E1
9.69039039039039E1
9.74034034034034E1
9.79029029029029E1
9.84024024024024E1
9.890190190190188E1
9.940140140140139E1
9.99009009009009E1
1.0040040040040039E2
1.0089989989989989E2
1.0139939939939939E2
1.0189889889889889E2
1.023983983983984E2
1.0289789789789788E2
1.0339739739739738E2
1.0389689689689689E2
1.0439639639639638E2
1.0489589589589589E2
1.0539539539539538E2
1.0589489489489489E2
1.063943943943944E2
1.0689389389389387E2
1.0739339339339338E2
1.0789289289289287E2
1.0839239239239238E2
1.0889189189189189E2
1.0939139139139138E2
1.0989089089089089E2
1.1039039039039037E2
1.1088988988988987E2
1.1138938938938938E2
1.1188888888888887E2
1.1238838838838838E2
1.1288788788788787E2
1.1338738738738738E2
1.1388688688688688E2
1.1438638638638636E2
1.1488588588588587E2
1.1538538538538538E2
1.1588488488488487E2
1.1638438438438438E2
1.1688388388388387E2
1.1738338338338338E2
1.1788288288288288E2
1.1838238238238237E2
1.1888188188188188E2
1.1938138138138136E2
1.1988088088088087E2
1.2038038038038037E2
1.2087987987987987E2
1.2137937937937937E2
1.2187887887887887E2
1.2237837837837837E2
1.2287787787787788E2
1.2337737737737736E2
1.2387687687687686E2
1.2437637637637637E2
1.2487587587587586E2
1.2537537537537537E2
1.2587487487487486E2
1.2637437437437437E2
1.2687387387387388E2
1.2737337337337335E2
1.2787287287287286E2
1.2837237237237235E2
1.2887187187187186E2
1.2937137137137137E2
1.2987087087087085E2
1.3037037037037035E2
1.3086986986986986E2
1.3136936936936937E2
1.3186886886886887E2
1.3236836836836835E2
1.3286786786786786E2
1.3336736736736734E2
1.3386686686686684E2
1.3436636636636635E2
1.3486586586586586E2
1.3536536536536536E2
1.3586486486486487E2
1.3636436436436435E2
1.3686386386386386E2
1.3736336336336333E2
1.3786286286286284E2
1.3836236236236235E2
1.3886186186186185E2
1.3936136136136136E2
1.3986086086086084E2
1.4036036036036035E2
1.4085985985985985E2
1.4135935935935933E2
1.4185885885885884E2
1.4235835835835834E2
1.4285785785785785E2
1.4335735735735736E2
1.4385685685685684E2
1.4435635635635634E2
1.4485585585585585E2
1.4535535535535533E2
1.4585485485485484E2
1.4635435435435434E2
1.4685385385385385E2
1.4735335335335336E2
1.4785285285285283E2
1.4835235235235234E2
1.4885185185185182E2
1.4935135135135133E2
1.4985085085085083E2
1.5035035035035034E2
1.5084984984984985E2
1.5134934934934932E2
1.5184884884884883E2
1.5234834834834834E2
1.5284784784784782E2
1.5334734734734732E2
1.5384684684684683E2
1.5434634634634634E2
1.5484584584584584E2
1.5534534534534532E2
1.5584484484484483E2
1.5634434434434434E2
1.568438438438438E2
1.5734334334334332E2
1.5784284284284283E2
1.5834234234234233E2
1.5884184184184184E2
1.5934134134134132E2
1.5984084084084083E2
1.6034034034034033E2
1.6083983983983984E2
1.6133933933933935E2
1.6183883883883883E2
1.6233833833833833E2
1.628378378378378E2
1.6333733733733735E2
1.6383683683683685E2
1.6433633633633633E2
1.6483583583583584E2
1.6533533533533534E2
1.6583483483483485E2
1.663343343343343E2
1.668338338338338E2
1.6733333333333331E2
1.6783283283283282E2
1.6833233233233233E2
1.688318318318318E2
1.693313313313313E2
1.6983083083083082E2
1.7033033033033033E2
1.7082982982982983E2
1.713293293293293E2
1.7182882882882882E2
1.7232832832832833E2
1.7282782782782783E2
1.7332732732732734E2
1.738268268268268E2
1.743263263263263E2
1.748258258258258E2
1.753253253253253E2
1.7582482482482482E2
1.763243243243243E2
1.768238238238238E2
1.773233233233233E2
1.7782282282282281E2
1.7832232232232232E2
1.788218218218218E2
1.793213213213213E2
1.798208208208208E2
1.8032032032032032E2
1.8081981981981983E2
1.8131931931931928E2
1.8181881881881878E2
1.823183183183183E2
1.828178178178178E2
1.833173173173173E2
1.838168168168168E2
1.843163163163163E2
1.848158158158158E2
1.853153153153153E2
1.858148148148148E2
1.8631431431431432E2
1.868138138138138E2
1.873133133133133E2
1.878128128128128E2
1.8831231231231232E2
1.8881181181181182E2
1.8931131131131127E2
1.8981081081081078E2
1.9031031031031029E2
1.908098098098098E2
1.913093093093093E2
1.9180880880880878E2
1.9230830830830828E2
1.928078078078078E2
1.933073073073073E2
1.938068068068068E2
1.9430630630630628E2
1.948058058058058E2
1.953053053053053E2
1.958048048048048E2
1.963043043043043E2
1.9680380380380376E2
1.9730330330330327E2
1.9780280280280277E2
1.9830230230230228E2
1.988018018018018E2
1.9930130130130127E2
1.9980080080080077E2
2.0030030030030028E2
2.0079979979979979E2
2.012992992992993E2
2.0179879879879877E2
2.0229829829829828E2
2.0279779779779778E2
2.032972972972973E2
2.037967967967968E2
2.042962962962963E2
2.0479579579579575E2
2.0529529529529526E2
2.0579479479479477E2
2.0629429429429428E2
2.0679379379379378E2
2.0729329329329326E2
2.0779279279279277E2
2.0829229229229227E2
2.0879179179179178E2
2.092912912912913E2
2.0979079079079077E2
2.1029029029029027E2
2.1078978978978978E2
2.112892892892893E2
2.117887887887888E2
2.1228828828828827E2
2.1278778778778778E2
2.1328728728728726E2
2.1378678678678676E2
2.1428628628628627E2
2.1478578578578575E2
2.1528528528528525E2
2.1578478478478476E2
2.1628428428428427E2
2.1678378378378378E2
2.1728328328328325E2
2.1778278278278276E2
2.1828228228228227E2
2.1878178178178177E2
2.1928128128128128E2
2.1978078078078076E2
2.2028028028028027E2
2.2077977977977977E2
2.2127927927927928E2
2.217787787787788E2
2.2227827827827824E2
2.2277777777777774E2
2.2327727727727725E2
2.2377677677677676E2
2.2427627627627626E2
2.2477577577577574E2
2.2527527527527525E2
2.2577477477477476E2
2.2627427427427426E2
2.2677377377377377E2
2.2727327327327328E2
2.2777277277277275E2
2.2827227227227226E2
2.2877177177177177E2
2.2927127127127127E2
2.2977077077077078E2
2.3027027027027023E2
2.3076976976976974E2
2.3126926926926924E2
2.3176876876876875E2
2.3226826826826826E2
2.3276776776776774E2
2.3326726726726724E2
2.3376676676676675E2
2.3426626626626626E2
2.3476576576576576E2
2.3526526526526524E2
2.3576476476476475E2
2.3626426426426426E2
2.3676376376376376E2
2.3726326326326327E2
2.3776276276276272E2
2.3826226226226223E2
2.3876176176176173E2
2.3926126126126124E2
2.3976076076076075E2
2.4026026026026022E2
2.4075975975975973E2
2.4125925925925924E2
2.4175875875875874E2
2.4225825825825825E2
2.4275775775775773E2
2.4325725725725724E2
2.4375675675675674E2
2.4425625625625625E2
2.4475575575575576E2
2.452552552552552E2
2.457547547547547E2
2.4625425425425422E2
2.4675375375375373E2
2.4725325325325323E2
2.4775275275275274E2
2.4825225225225222E2
2.4875175175175173E2
2.4925125125125123E2
2.4975075075075074E2
2.5025025025025025E2
2.5074974974974972E2
2.5124924924924923E2
2.5174874874874874E2
2.5224824824824825E2
2.5274774774774775E2
2.532472472472472E2
2.537467467467467E2
2.5424624624624622E2
2.5474574574574572E2
2.5524524524524523E2
2.557447447447447E2
2.562442442442442E2
2.567437437437437E2
2.572432432432432E2
2.5774274274274273E2
2.582422422422422E2
2.587417417417417E2
2.592412412412412E2
2.597407407407407E2
2.602402402402402E2
2.607397397397397E2
2.612392392392392E2
2.6173873873873873E2
2.6223823823823824E2
2.6273773773773775E2
2.632372372372372E2
2.637367367367367E2
2.642362362362362E2
2.647357357357357E2
2.652352352352352E2
2.657347347347347E2
2.662342342342342E2
2.667337337337337E2
2.672332332332332E2
2.677327327327327E2
2.682322322322322E2
2.687317317317317E2
2.692312312312312E2
2.697307307307307E2
2.7023023023023023E2
2.7072972972972974E2
2.712292292292292E2
2.717287287287287E2
2.722282282282282E2
2.727277277277277E2
2.732272272272272E2
2.7372672672672667E2
2.742262262262262E2
2.747257257257257E2
2.752252252252252E2
2.757247247247247E2
2.762242242242242E2
2.767237237237237E2
2.772232232232232E2
2.777227227227227E2
2.7822222222222223E2
2.787217217217217E2
2.792212212212212E2
2.797207207207207E2
2.802202202202202E2
2.807197197197197E2
2.8121921921921916E2
2.8171871871871866E2
2.8221821821821817E2
2.827177177177177E2
2.832172172172172E2
2.837167167167167E2
2.842162162162162E2
2.847157157157157E2
2.852152152152152E2
2.857147147147147E2
2.8621421421421417E2
2.867137137137137E2
2.872132132132132E2
2.877127127127127E2
2.882122122122122E2
2.887117117117117E2
2.8921121121121115E2
2.8971071071071066E2
2.9021021021021016E2
2.9070970970970967E2
2.912092092092092E2
2.917087087087087E2
2.922082082082082E2
2.927077077077077E2
2.932072072072072E2
2.937067067067067E2
2.9420620620620616E2
2.9470570570570567E2
2.952052052052052E2
2.957047047047047E2
2.962042042042042E2
2.967037037037037E2
2.972032032032032E2
2.977027027027027E2
2.9820220220220216E2
2.9870170170170167E2
2.992012012012012E2
2.997007007007007E2
3.002002002002002E2
3.006996996996997E2
3.011991991991992E2
3.0169869869869865E2
3.0219819819819816E2
3.0269769769769766E2
3.0319719719719717E2
3.036966966966967E2
3.041961961961962E2
3.046956956956957E2
3.051951951951952E2
3.056946946946947E2
3.061941941941942E2
3.0669369369369366E2
3.0719319319319317E2
3.076926926926927E2
3.081921921921922E2
3.086916916916917E2
3.0919119119119114E2
3.0969069069069064E2
3.1019019019019015E2
3.1068968968968966E2
3.1118918918918916E2
3.1168868868868867E2
3.121881881881882E2
3.126876876876877E2
3.131871871871872E2
3.136866866866867E2
3.141861861861862E2
3.1468568568568566E2
3.1518518518518516E2
3.1568468468468467E2
3.161841841841842E2
3.166836836836837E2
3.1718318318318313E2
3.1768268268268264E2
3.1818218218218215E2
3.1868168168168165E2
3.1918118118118116E2
3.1968068068068067E2
3.201801801801802E2
3.206796796796797E2
3.211791791791792E2
3.216786786786787E2
3.2217817817817814E2
3.2267767767767765E2
3.2317717717717716E2
3.2367667667667666E2
3.2417617617617617E2
3.246756756756756E2
3.251751751751751E2
3.2567467467467463E2
3.2617417417417414E2
3.2667367367367365E2
3.2717317317317315E2
3.2767267267267266E2
3.2817217217217217E2
3.286716716716717E2
3.291711711711712E2
3.296706706706707E2
3.301701701701702E2
3.306696696696697E2
3.3116916916916915E2
3.3166866866866866E2
3.3216816816816817E2
3.326676676676677E2
3.331671671671672E2
3.336666666666667E2
3.341661661661662E2
3.346656656656657E2
3.351651651651652E2
3.356646646646647E2
3.3616416416416416E2
3.3666366366366367E2
3.371631631631632E2
3.376626626626627E2
3.381621621621622E2
3.386616616616617E2
3.391611611611612E2
3.396606606606607E2
3.401601601601602E2
3.406596596596597E2
3.411591591591591E2
3.416586586586586E2
3.4215815815815813E2
3.4265765765765764E2
3.4315715715715714E2
3.4365665665665665E2
3.4415615615615616E2
3.4465565565565566E2
3.4515515515515517E2
3.456546546546547E2
3.461541541541542E2
3.4665365365365363E2
3.4715315315315314E2
3.4765265265265265E2
3.4815215215215215E2
3.4865165165165166E2
3.4915115115115117E2
3.496506506506507E2
3.501501501501502E2
3.506496496496497E2
3.511491491491492E2
3.5164864864864865E2
3.5214814814814815E2
3.5264764764764766E2
3.5314714714714717E2
3.536466466466467E2
3.541461461461462E2
3.546456456456457E2
3.551451451451452E2
3.556446446446447E2
3.561441441441442E2
3.566436436436436E2
3.571431431431431E2
3.576426426426426E2
3.581421421421421E2
3.586416416416416E2
3.5914114114114113E2
3.5964064064064064E2
3.6014014014014015E2
3.6063963963963965E2
3.6113913913913916E2
3.616386386386386E2
3.621381381381381E2
3.626376376376376E2
3.6313713713713713E2
3.6363663663663664E2
3.6413613613613614E2
3.6463563563563565E2
3.6513513513513516E2
3.6563463463463466E2
3.661341341341342E2
3.666336336336337E2
3.6713313313313313E2
3.6763263263263264E2
3.6813213213213214E2
3.6863163163163165E2
3.6913113113113116E2
3.6963063063063066E2
3.7013013013013017E2
3.706296296296297E2
3.711291291291292E2
3.716286286286287E2
3.721281281281281E2
3.726276276276276E2
3.731271271271271E2
3.736266266266266E2
3.741261261261261E2
3.746256256256256E2
3.751251251251251E2
3.7562462462462463E2
3.7612412412412414E2
3.7662362362362364E2
3.771231231231231E2
3.776226226226226E2
3.781221221221221E2
3.786216216216216E2
3.791211211211211E2
3.796206206206206E2
3.8012012012012013E2
3.8061961961961964E2
3.8111911911911915E2
3.8161861861861865E2
3.821181181181181E2
3.826176176176176E2
3.831171171171171E2
3.836166166166166E2
3.8411611611611613E2
3.8461561561561564E2
3.8511511511511515E2
3.8561461461461465E2
3.8611411411411416E2
3.8661361361361367E2
3.871131131131132E2
3.8761261261261257E2
3.881121121121121E2
3.886116116116116E2
3.891111111111111E2
3.896106106106106E2
3.901101101101101E2
3.906096096096096E2
3.911091091091091E2
3.916086086086086E2
3.921081081081081E2
3.926076076076076E2
3.931071071071071E2
3.936066066066066E2
3.941061061061061E2
3.946056056056056E2
3.951051051051051E2
3.956046046046046E2
3.961041041041041E2
3.9660360360360363E2
3.9710310310310314E2
3.976026026026026E2
3.981021021021021E2
3.986016016016016E2
3.991011011011011E2
3.996006006006006E2
4.001001001001001E2
4.005995995995996E2
4.0109909909909913E2
4.0159859859859864E2
4.0209809809809815E2
4.0259759759759754E2
4.0309709709709705E2
4.0359659659659656E2
4.0409609609609606E2
4.0459559559559557E2
4.050950950950951E2
4.055945945945946E2
4.060940940940941E2
4.065935935935936E2
4.070930930930931E2
4.075925925925926E2
4.0809209209209206E2
4.0859159159159157E2
4.090910910910911E2
4.095905905905906E2
4.100900900900901E2
4.105895895895896E2
4.110890890890891E2
4.115885885885886E2
4.120880880880881E2
4.125875875875876E2
4.1308708708708707E2
4.135865865865866E2
4.140860860860861E2
4.145855855855856E2
4.150850850850851E2
4.155845845845846E2
4.160840840840841E2
4.165835835835836E2
4.170830830830831E2
4.1758258258258263E2
4.180820820820821E2
4.185815815815816E2
4.190810810810811E2
4.195805805805806E2
4.200800800800801E2
4.205795795795796E2
4.210790790790791E2
4.215785785785786E2
4.220780780780781E2
4.225775775775776E2
4.2307707707707704E2
4.2357657657657654E2
4.2407607607607605E2
4.2457557557557556E2
4.2507507507507506E2
4.2557457457457457E2
4.260740740740741E2
4.265735735735736E2
4.270730730730731E2
4.275725725725726E2
4.280720720720721E2
4.2857157157157155E2
4.2907107107107106E2
4.2957057057057057E2
4.300700700700701E2
4.305695695695696E2
4.310690690690691E2
4.315685685685686E2
4.320680680680681E2
4.325675675675676E2
4.330670670670671E2
4.3356656656656656E2
4.3406606606606607E2
4.345655655655656E2
4.350650650650651E2
4.355645645645646E2
4.360640640640641E2
4.365635635635636E2
4.370630630630631E2
4.375625625625626E2
4.380620620620621E2
4.385615615615615E2
4.39061061061061E2
4.3956056056056053E2
4.4006006006006004E2
4.4055955955955955E2
4.4105905905905905E2
4.4155855855855856E2
4.4205805805805807E2
4.425575575575576E2
4.430570570570571E2
4.4355655655655653E2
4.4405605605605604E2
4.4455555555555554E2
4.4505505505505505E2
4.4555455455455456E2
4.4605405405405406E2
4.4655355355355357E2
4.470530530530531E2
4.475525525525526E2
4.480520520520521E2
4.4855155155155154E2
4.4905105105105105E2
4.4955055055055055E2
4.5005005005005006E2
4.5054954954954957E2
4.510490490490491E2
4.515485485485486E2
4.520480480480481E2
4.525475475475476E2
4.530470470470471E2
4.535465465465466E2
4.54046046046046E2
4.545455455455455E2
4.55045045045045E2
4.555445445445445E2
4.56044044044044E2
4.5654354354354354E2
4.5704304304304304E2
4.5754254254254255E2
4.5804204204204206E2
4.5854154154154156E2
4.59041041041041E2
4.595405405405405E2
4.6004004004004E2
4.6053953953953953E2
4.6103903903903904E2
4.6153853853853855E2
4.6203803803803805E2
4.6253753753753756E2
4.6303703703703707E2
4.635365365365366E2
4.64036036036036E2
4.6453553553553553E2
4.6503503503503504E2
4.6553453453453454E2
4.6603403403403405E2
4.6653353353353356E2
4.6703303303303306E2
4.6753253253253257E2
4.680320320320321E2
4.685315315315316E2
4.69031031031031E2
4.695305305305305E2
4.7003003003003E2
4.705295295295295E2
4.71029029029029E2
4.715285285285285E2
4.72028028028028E2
4.725275275275275E2
4.7302702702702703E2
4.7352652652652654E2
4.7402602602602605E2
4.745255255255255E2
4.75025025025025E2
4.755245245245245E2
4.76024024024024E2
4.765235235235235E2
4.7702302302302303E2
4.7752252252252254E2
4.7802202202202204E2
4.7852152152152155E2
4.7902102102102106E2
4.795205205205205E2
4.8002002002002E2
4.805195195195195E2
4.81019019019019E2
4.8151851851851853E2
4.8201801801801804E2
4.8251751751751755E2
4.8301701701701705E2
4.8351651651651656E2
4.8401601601601607E2
4.8451551551551546E2
4.8501501501501497E2
4.855145145145145E2
4.86014014014014E2
4.865135135135135E2
4.87013013013013E2
4.875125125125125E2
4.88012012012012E2
4.885115115115115E2
4.89011011011011E2
4.8951051051051047E2
4.9001001001001E2
4.905095095095095E2
4.91009009009009E2
4.915085085085085E2
4.92008008008008E2
4.925075075075075E2
4.93007007007007E2
4.935065065065065E2
4.9400600600600603E2
4.9450550550550554E2
4.95005005005005E2
4.955045045045045E2
4.96004004004004E2
4.965035035035035E2
4.97003003003003E2
4.975025025025025E2
4.9800200200200203E2
4.9850150150150154E2
4.9900100100100104E2
4.9950050050050055E2
4.9999999999999994E2
