%%MatrixMarket matrix array complex general
%
1000 1
7.883549078324212E-1 -7.885966990008207E-1
1.1147287304728706 -1.1154151302321904
1.3650436854039538 -1.366324160361712
1.5759957087739254 -1.577934309360568
1.7617292476550543 -1.7644410511568471
1.929554914129507 -1.9331600180990742
2.0838644067229435 -2.088370117700895
2.2273581588721556 -2.232988044578585
2.3621519434614977 -2.3686958519659878
2.4895400566739827 -2.497199438055477
2.6106689262949687 -2.619503152768761
2.726498109475091 -2.736279254247979
2.8371957180386724 -2.8485773146215627
2.9438310171727964 -2.9565746568752913
3.046359622773682 -3.0608366601885284
3.146523290928337 -3.1619756784940938
3.2424701285002873 -3.2594724283875736
3.3358987163644667 -3.354532936412327
3.4266144648943797 -3.4473190939424665
3.515287198018154 -3.5370852071848717
3.6013674964364735 -3.625139904051577
3.6857982752437026 -3.7108603784706276
3.7680134322910237 -3.794809523381013
3.848297512008228 -3.878015050582224
3.927189894999025 -3.9576163433725857
4.0035443832946385 -4.0367205591777555
4.080052741093386 -4.114156825936556
4.154326519814029 -4.190285086396228
4.227096467646717 -4.264974012919844
4.298765214660396 -4.338622797824158
4.369246065677231 -4.411016931237613
4.437233423271194 -4.481475223111058
4.505539933073061 -4.551843453039284
4.573452218919852 -4.621663608189219
4.639453379285572 -4.690010894333286
4.704683591014055 -4.7574131639282164
4.768902788502724 -4.823535290826441
4.832588311516879 -4.887823834436956
4.89230688752636 -4.952521611122414
4.956158414179233 -5.01704569993031
5.020049820382706 -5.081276858114911
5.076689147598595 -5.14221405584747
5.13581313736331 -5.2021481609362
5.1948643565543815 -5.265653898683055
5.252636161668754 -5.3259978571811635
5.309168224876573 -5.385193591508414
5.36564854227206 -5.444220637414612
5.421918921884956 -5.502957295699497
5.4747782510137855 -5.55806663775561
5.53137879696191 -5.618165167484774
5.5867720008247215 -5.675944681827574
5.6405025192478915 -5.731505317628085
5.698046267186536 -5.786756500161792
5.749480010684298 -5.844320583346286
5.801060095816403 -5.897856297694357
5.853671524990526 -5.952855154941184
5.905126250854817 -6.008133773751096
5.95861516232883 -6.061615394266113
6.001281518053972 -6.112240518395954
6.052802079754914 -6.163830336067647
6.100524632453099 -6.2163005096088595
6.141798260639078 -6.265855385414028
6.194401483881511 -6.319064423384668
6.241462905781634 -6.371207482572016
6.2901668728739395 -6.423185175854469
6.332856515237301 -6.47517988452157
6.387624746536367 -6.5213122323743145
6.424971169347386 -6.575559569458112
6.47674183573926 -6.617232709718262
6.526125840017267 -6.668526540087043
6.5719638863613214 -6.7161874760707105
6.625400044998433 -6.76837176693134
6.661794087094673 -6.812891186659058
6.705863061321811 -6.860467825105254
6.749974569722653 -6.907822471021108
6.793743666741513 -6.9547169666603645
6.834979741633693 -6.998855515629209
6.878625742059065 -7.049281323817923
6.92817489864706 -7.0959134916980275
6.960943826963407 -7.141963818837325
7.010439174200279 -7.185835501277214
7.042708363116932 -7.222255733964036
7.090654324098512 -7.275149192332866
7.130786585670827 -7.317988777328018
7.174343681327953 -7.365427594751324
7.215262138566563 -7.4098918017191675
7.255652484866642 -7.453819977040935
7.280229296871856 -7.505355701774397
7.321104771245889 -7.548870525568595
7.362419263037266 -7.592398186460226
7.401711533024046 -7.63603779777667
7.441273651295548 -7.670180227220586
7.486738725905015 -7.714566552447317
7.533774305933469 -7.755401603687094
7.571814480175504 -7.797186412760315
7.617883497905349 -7.837400700120242
7.636947915792836 -7.894738715798461
7.678223210436278 -7.904128983045223
7.725308992520157 -7.966723128580752
7.763207791951405 -8.007350137482481
7.801237001506099 -8.048516663542756
7.839039223802321 -8.089519327448437
7.876317230079983 -8.130285544744982
7.913360472112301 -8.171310711884487
7.9504185816856205 -8.211552494277134
7.969415472991196 -8.255963385588501
8.023423396840782 -8.29175954329188
8.055730492722496 -8.332952464726535
8.084199579851811 -8.375730801949905
8.132981422867227 -8.410793229356628
8.168965703574049 -8.450131487026468
8.205964777393945 -8.488679210276707
8.220117280486747 -8.537487161994811
8.259425144502162 -8.574358358260069
8.299711915011192 -8.610770850246464
8.340202925184027 -8.647053731233717
8.36907317022769 -8.686306223734743
8.409096752523576 -8.722180572164058
8.44433307714677 -8.760108478174546
8.474260265061794 -8.802157079452208
8.50653667173586 -8.84080632249684
8.539016840896927 -8.878888125752434
8.572132286830659 -8.91624271738663
8.601867368489986 -8.95490673626364
8.64157406534753 -8.98722941955779
8.673989149776762 -9.024060162430128
8.711923472804392 -9.063455487633671
8.717292795649385 -9.102573868386122
8.742984758725559 -9.143957249912265
8.80678784790048 -9.177061545641273
8.842342817903306 -9.211760475342398
8.84832151203428 -9.258169018125553
8.872251840608532 -9.294670838532628
8.901451991099744 -9.329981088381444
8.950635815107674 -9.361608264422708
8.99877339901521 -9.391155487689074
9.02796946461113 -9.429044118451857
9.06513296975542 -9.462147390809855
9.069853518694558 -9.510867795764351
9.117792890302969 -9.541847178984153
9.132333743366814 -9.578275642251548
9.182249943216044 -9.606566171752696
9.2224039529433 -9.638871963962496
9.25567745554465 -9.672297255501984
9.281831801098413 -9.710346851232341
9.312657396951035 -9.74226773740881
9.349080431097768 -9.780826074571026
9.373500668689731 -9.81405262609822
9.403229136046788 -9.84790935027678
9.399197799005348 -9.895268564055126
9.45468951123514 -9.919022175422004
9.486461192177856 -9.952877593154875
9.523590613193976 -9.986804277147085
9.555184859240953 -1.0010370389015314E1
9.601470720807823 -1.0051273661717737E1
9.593842136457209 -1.009620241420772E1
9.643564631971936 -1.0121435642039346E1
9.667065200256653 -1.0155604653158946E1
9.683798419528788 -1.0193340236557875E1
9.709017235993324 -1.0211515330229947E1
9.758797856880959 -1.0254823578842702E1
9.726526833438882 -1.0277665627599664E1
9.791962203528202 -1.032874800435615E1
9.836482602811703 -1.0357468295567273E1
9.855247133266893 -1.039250377634088E1
9.863922363193371 -1.0422971056853276E1
9.927438100966443 -1.0457895288710919E1
9.948242438994725 -1.0495640209515491E1
9.975741889315147 -1.0527215662002195E1
1.0010502508444953E1 -1.0554564299277711E1
1.0010524898740558E1 -1.0599865948251923E1
1.0044248126118731E1 -1.0630812015355785E1
1.0077962521148173E1 -1.0661399664828146E1
1.0111162371236443E1 -1.0691802982775224E1
1.0122351145041314E1 -1.0729821874921967E1
1.015930537137571E1 -1.0757249561959522E1
1.0198213598213773E1 -1.078266345378427E1
1.020604577673861E1 -1.0821211390667848E1
1.0195285004434353E1 -1.0803205458803813E1
1.0284205852790766E1 -1.0874691867712624E1
1.0307867878893846E1 -1.0910273397863325E1
1.03265115499345E1 -1.0945401914011951E1
1.034482658410502E1 -1.094847587008149E1
1.0398359628510761E1 -1.1002759408876894E1
1.0413107034877855E1 -1.1031582277253028E1
1.041216380399858E1 -1.108933110536647E1
1.043633618114929E1 -1.1119840186629176E1
1.0431879713329247E1 -1.1188402559263505E1
1.0500971169181309E1 -1.1174583642633957E1
1.0545580898095045E1 -1.1195205543980732E1
1.050322931081771E1 -1.127433987417546E1
1.0543288679908882E1 -1.1290052516647561E1
1.0579248342464288E1 -1.1312160215122196E1
1.0599956228621895E1 -1.1347888724511261E1
1.0619939384794831E1 -1.1384488012176549E1
1.06446196186784E1 -1.1416501913283769E1
1.0731099294459511E1 -1.1407529466948525E1
1.0752021525451191E1 -1.1439425746678522E1
1.0771017652197093E1 -1.1472387795979586E1
1.0787969769243098E1 -1.1506864286124557E1
1.0803203531648299E1 -1.1543134798943187E1
1.0766855073734618E1 -1.1619132344063441E1
1.0807544491704649E1 -1.1635759499856277E1
1.0897146432870798E1 -1.1628990411326392E1
1.0915881668087568E1 -1.1662914621357418E1
1.0934356832868492E1 -1.1697088608324364E1
1.0953136509022166E1 -1.1731124365258175E1
1.0972608454504698E1 -1.176470706350514E1
1.099294427319439E1 -1.1797688684452096E1
1.1024366326592643E1 -1.1835516871989347E1
1.1038349264438702E1 -1.1876193810856536E1
1.1054940909612192E1 -1.1914838188470181E1
1.1074171006447967E1 -1.1951111913958881E1
1.1149731149750032E1 -1.192483829927242E1
1.117585044145685E1 -1.1953315513319568E1
1.114262296642666E1 -1.201242485430225E1
1.1142893492281857E1 -1.208855485383661E1
1.124583579870456E1 -1.204431969655558E1
1.1265881221019123E1 -1.2075881516631139E1
1.1242509088696897E1 -1.213631405854915E1
1.1306780297665359E1 -1.2096515978313937E1
1.133491198150033E1 -1.2128457557999184E1
1.1306940669751315E1 -1.2306586228619109E1
1.1330191514652808E1 -1.2333652087411993E1
1.1390985480241445E1 -1.2368258521442156E1
1.1436033549549702E1 -1.2278122931820535E1
1.1478267752756143E1 -1.2302033490572475E1
1.1507969510315524E1 -1.2358258944369844E1
1.152659060355738E1 -1.2421008897231864E1
1.1543554989417554E1 -1.23855618840926E1
1.1545347163929573E1 -1.2463074165416572E1
1.1583297459424978E1 -1.244816008709415E1
1.1609823924726253E1 -1.2474270639109166E1
1.1625292860355996E1 -1.2509143476661302E1
1.1649640066296703E1 -1.2535965627961781E1
1.1608997026112265E1 -1.2656210216091209E1
1.1668069176409903E1 -1.2621707693399017E1
1.167143411553092E1 -1.2671995346146753E1
1.1691585636232187E1 -1.2700097416102587E1
1.1742744773168344E1 -1.2696265607775132E1
1.1769615050489111E1 -1.272110212021701E1
1.1783494646413025E1 -1.2755281299263595E1
1.179854188345107E1 -1.2787458944944579E1
1.1836455507085565E1 -1.2802729173396258E1
1.1868177574360725E1 -1.2828204099556798E1
1.1890709718386397E1 -1.2856360537602898E1
1.191328017563343E1 -1.2884434633149553E1
1.193587416576972E1 -1.2912429430778399E1
1.1958520846785378E1 -1.2940329923573632E1
1.1981212226263853E1 -1.296813440894737E1
1.200393993327992E1 -1.2995841412403983E1
1.2026733909375741E1 -1.302343030301537E1
1.2049584553074423E1 -1.3050896599260794E1
1.2072478622213222E1 -1.3078236520739203E1
1.2095415258917592E1 -1.3105440920870294E1
1.2118389657553406E1 -1.31325001515228E1
1.199235850826145E1 -1.3169268972692157E1
1.2029856826312791E1 -1.3198849318196894E1
1.215078020168996E1 -1.3229772351090048E1
1.2146739551606274E1 -1.3292035931274542E1
1.2173454219653722E1 -1.3309853484430985E1
1.2202092825131576E1 -1.3332936969609742E1
1.2218876104346405E1 -1.336335729361863E1
1.2232422493896996E1 -1.3417352439925889E1
1.226219793252231E1 -1.3425759738068678E1
1.2322518820361706E1 -1.3414962019779708E1
1.2363754715834071E1 -1.3422651686976382E1
1.2403069182099541E1 -1.344674441304179E1
1.2308768208761613E1 -1.339649853839777E1
1.2267853558439722E1 -1.3459742014469033E1
1.2343107973526786E1 -1.354267336376608E1
1.242955938255007E1 -1.356958173124383E1
1.2414988834001488E1 -1.3602023374240755E1
1.246367899599046E1 -1.3623612644539653E1
1.2472374523505222E1 -1.364790290672408E1
1.2495192739964263E1 -1.3673538246882538E1
1.256018050286736E1 -1.3706519264991814E1
1.2576485299206128E1 -1.3735961715036476E1
1.2595578418354396E1 -1.3763691323608064E1
1.2617328403728541E1 -1.3790131111940845E1
1.2525843703645126E1 -1.3810988504369188E1
1.2664538323825381E1 -1.3840131418261912E1
1.2541114116092682E1 -1.3874432901464695E1
1.2624105830800508E1 -1.3905960539929733E1
1.2684424438350472E1 -1.3929407641685723E1
1.2695227017665742E1 -1.3956746990447693E1
1.2707420678877263E1 -1.3983585833710727E1
1.2720604031059185E1 -1.4010124744279521E1
1.2732136923034355E1 -1.4036616243044033E1
1.2734428170804737E1 -1.4062782753280956E1
1.2779636149386635E1 -1.4091904789516551E1
1.2805934636038874E1 -1.4113894172080615E1
1.2825963763438462E1 -1.4142365711798364E1
1.2852694754487255E1 -1.416907842018796E1
1.276030250815579E1 -1.4158378170841342E1
1.2778327549961675E1 -1.418435032962914E1
1.2806711239989669E1 -1.421306293799231E1
1.2870746468971463E1 -1.4248070608343939E1
1.2968692326282756E1 -1.4298544040457045E1
1.288474242106176E1 -1.4300327195807393E1
1.3003208422652046E1 -1.4349920482035467E1
1.3024187240248912E1 -1.4403986647716755E1
1.3041699641978644E1 -1.437186600834738E1
1.3016471265889356E1 -1.4529441630740969E1
1.3088376429381183E1 -1.4469195798098069E1
1.3065819081818184E1 -1.463033819294172E1
1.3087511107187218E1 -1.4604763406117252E1
1.3125282253422833E1 -1.4586388226440924E1
1.3214414623930937E1 -1.452683479076085E1
1.3258573667616929E1 -1.4556565668892922E1
1.3248050947104922E1 -1.4577530972283846E1
1.3157212660476356E1 -1.4598797964677061E1
1.3125303544704488E1 -1.4630299100442366E1
1.32904723169118E1 -1.4675352889966813E1
1.3288026928386145E1 -1.4701397209733841E1
1.3248121716716069E1 -1.4736551046998054E1
1.3265530098672357E1 -1.4758530225816894E1
1.3202947578730605E1 -1.477942804987558E1
1.3279543696753377E1 -1.4810875646174024E1
1.3297876583800674E1 -1.4837053373478225E1
1.330667581192278E1 -1.4862794429847584E1
1.332114280556103E1 -1.4888929444417542E1
1.3341461137084023E1 -1.4915588197457437E1
1.336650219298216E1 -1.4942488781677389E1
1.3338287152384888E1 -1.4959650659754926E1
1.3310643466453348E1 -1.497224768944236E1
1.3532960845718698E1 -1.5010860438903409E1
1.3544147898663232E1 -1.503810290931311E1
1.3553142343705643E1 -1.5065553372285866E1
1.3561481987608524E1 -1.5092460052405464E1
1.3569515583688938E1 -1.5118777423853837E1
1.3577616600676384E1 -1.5144551605898947E1
1.3585814898122486E1 -1.5169873204673216E1
1.3594238735817022E1 -1.5194819413559195E1
1.360294803513854E1 -1.521946014075046E1
1.3612086076581921E1 -1.5243856639947547E1
1.3602498143138977E1 -1.5269071093604893E1
1.3625102172389596E1 -1.529426644138579E1
1.3646408900936793E1 -1.5319278209387964E1
1.366608879471524E1 -1.5344089088290952E1
1.3684584650335422E1 -1.5368755808534623E1
1.3701454223680624E1 -1.5393220368817213E1
1.371707899780086E1 -1.5417504127983278E1
1.3731305466940999E1 -1.5441559473059812E1
1.3744164650321949E1 -1.5465346163789635E1
1.3755508091644016E1 -1.5488787178792636E1
1.3765424129758093E1 -1.5511827675622337E1
1.377408250123529E1 -1.5534430151285614E1
1.3781397883457343E1 -1.5556501388243476E1
1.3787185293091191E1 -1.557790404324553E1
1.3791801302163693E1 -1.5598632011779856E1
1.3799080628305992E1 -1.5623029664829913E1
1.382078568379944E1 -1.5648278614655814E1
1.3843113313067766E1 -1.5673631908393695E1
1.3861950493215446E1 -1.5698484040418352E1
1.3881444771167441E1 -1.5723659693145411E1
1.3905146740287577E1 -1.5749792569126488E1
1.393428209482132E1 -1.5776911636091008E1
1.3970386610581267E1 -1.5804793537066185E1
1.4014181832529827E1 -1.5832551177265662E1
1.4050613290363225E1 -1.5859398117352475E1
1.4091978750320658E1 -1.5885423594399661E1
1.4136246481120395E1 -1.59097661401107E1
1.4182791599477932E1 -1.593102609253525E1
1.4035215648228904E1 -1.59450537836644E1
1.4045616811642445E1 -1.5962808739213363E1
1.4204371844804003E1 -1.5994353348683811E1
1.409520494092682E1 -1.5812195662211902E1
1.4285445022533207E1 -1.604110046912551E1
1.4219340465404787E1 -1.6278846198734204E1
1.4233041203018121E1 -1.6326948240817085E1
1.4317952663195264E1 -1.6132193883928714E1
1.4313319081788496E1 -1.618901392916157E1
1.4315587868478232E1 -1.624553241555927E1
1.432383237121847E1 -1.6295912025752838E1
1.4335378162767029E1 -1.6341464720375203E1
1.4349179619903909E1 -1.6381721184323705E1
1.4364370161338343E1 -1.6417260570100737E1
1.4380377932441249E1 -1.644934923952046E1
1.439688477203836E1 -1.647850303415637E1
1.4413668172963643E1 -1.6505697245488104E1
1.4430576152496762E1 -1.6534621926689585E1
1.4447594887331023E1 -1.656434622972268E1
1.4463818702303124E1 -1.6588181642087374E1
1.4479903380583782E1 -1.661765420625603E1
1.4496149739277433E1 -1.6647921669854988E1
1.4512507689788992E1 -1.6677700240969333E1
1.4528917162958782E1 -1.670726224238272E1
1.4545413701399614E1 -1.673571190945375E1
1.4561931353462473E1 -1.6763865788621032E1
1.457848824090915E1 -1.6791367335633105E1
1.4595067537332602E1 -1.6818375412627255E1
1.4611652453753285E1 -1.684484851779329E1
1.4628238459179222E1 -1.68707933138221E1
1.4644806256456794E1 -1.6896409427961405E1
1.4661378197544503E1 -1.6921604246136535E1
1.4677933401659377E1 -1.694634764931783E1
1.4694474257250517E1 -1.6970765749668633E1
1.471098697642452E1 -1.6994875034965432E1
1.4727473620487704E1 -1.7018758481384676E1
1.4743942882367257E1 -1.7042247147215445E1
1.4760404719547374E1 -1.706570602964548E1
1.4776841604989608E1 -1.7088843335905842E1
1.4793250349555862E1 -1.711191311277589E1
1.480963440912992E1 -1.71348876234E1
1.4826008326528749E1 -1.7157722699717926E1
1.4842341623290753E1 -1.718050208797928E1
1.4858686613290853E1 -1.720324670487567E1
1.4875113188563502E1 -1.7229728882585537E1
1.4891728097545002E1 -1.7260022001893276E1
1.490839142242985E1 -1.7289769208855702E1
1.4924987259782139E1 -1.731770654966645E1
1.4941593940178866E1 -1.7345476405052203E1
1.4958253147634194E1 -1.7373251824632028E1
1.4974752985529765E1 -1.7399321077894513E1
1.4991287612600795E1 -1.7425512160046946E1
1.5007710876804179E1 -1.745070520126944E1
1.502413967974271E1 -1.7475957393122172E1
1.5040316721965484E1 -1.74993972194628E1
1.505660537537781E1 -1.7523476644901603E1
1.5072637253829026E1 -1.754590714938598E1
1.5088582009391901E1 -1.756765243564462E1
1.5104491242310447E1 -1.758924725528233E1
1.5120285321510805E1 -1.7609961161981634E1
1.5135946958100538E1 -1.7629835469923783E1
1.5151550751923777E1 -1.7649229179092703E1
1.5167090604149653E1 -1.7668023648622473E1
1.5182667864769794E1 -1.768688488800095E1
1.5197981703935925E1 -1.7703426039839613E1
1.5213384231986652E1 -1.7719933713305196E1
1.5228955324684833E1 -1.7738564880739936E1
1.5244860754291404E1 -1.7762261960637638E1
1.5260774211605876E1 -1.7786232320948404E1
1.52766437886078E1 -1.7809908472756412E1
1.5292503953091584E1 -1.7833352464424472E1
1.5308353855271347E1 -1.7856949112241463E1
1.532418686305957E1 -1.788025977831962E1
1.5339989092929615E1 -1.790339000829162E1
1.5355758346123606E1 -1.7926378230219022E1
1.5371494624635298E1 -1.794906275784995E1
1.538720548045052E1 -1.79715726821584E1
1.5402868640766217E1 -1.7993712969016144E1
1.5418485997751478E1 -1.801552763329114E1
1.5434061793035529E1 -1.8036932030347973E1
1.5449587323826426E1 -1.8057934070154236E1
1.5465070798202845E1 -1.807836280080457E1
1.548049007542351E1 -1.8098549301537027E1
1.54958672292176E1 -1.8118035996366096E1
1.5511189435124352E1 -1.8137007755343152E1
1.5526460045107665E1 -1.81554531222041E1
1.5541699918737768E1 -1.8173332668076526E1
1.5556914933234976E1 -1.8190396080472155E1
1.5572098650504218E1 -1.820676101669309E1
1.5587295840411503E1 -1.8222683284205573E1
1.5602507640952442E1 -1.823773038922263E1
1.5618110122882406E1 -1.8255602759688674E1
1.563368178504123E1 -1.827239982025237E1
1.564883638615386E1 -1.8284662706735023E1
1.5663977003893903E1 -1.8290994993918698E1
1.5680061057534624E1 -1.8298192003993304E1
1.5697523132568836E1 -1.8300148961083472E1
1.571763208686345E1 -1.829589442438515E1
1.5742435421694045E1 -1.828574861163131E1
1.5776965785903199E1 -1.8269207474293403E1
1.5757059074741374E1 -1.8530371158957674E1
1.5787532588771436E1 -1.8586715412159357E1
1.5817792398933797E1 -1.8360214273802104E1
1.580792268088172E1 -1.8349575348409573E1
1.5623107134257838E1 -1.8328961920881532E1
1.5673148010684406E1 -1.8370764599897257E1
1.5875675373067484E1 -1.841830146314318E1
1.5856553907946491E1 -1.8443578823236003E1
1.5843214802708797E1 -1.8464620859556533E1
1.5836422876601453E1 -1.848418735273883E1
1.5836359108442146E1 -1.8503808853459837E1
1.5841140366949922E1 -1.852397406863714E1
1.5846311667887726E1 -1.854425580438773E1
1.5852451687898812E1 -1.8564719587080823E1
1.585954848901307E1 -1.8585377088726023E1
1.5868097425085827E1 -1.860634592824203E1
1.5876939137970277E1 -1.8627396952393465E1
1.5886445045102525E1 -1.864862300061586E1
1.5897144767268136E1 -1.8670145401097184E1
1.5908664057984307E1 -1.8691900728997666E1
1.5920959791066297E1 -1.8713888948852556E1
1.5934093921172424E1 -1.8736142397251335E1
1.5948184511075764E1 -1.8758655129067147E1
1.5963092754540813E1 -1.8781414991457545E1
1.5978885792041396E1 -1.880442725401635E1
1.5995423283225428E1 -1.8827615279280447E1
1.6012761372539828E1 -1.8850988377082967E1
1.601465480287656E1 -1.8869154198793115E1
1.6011489380663363E1 -1.888498472986562E1
1.6024860273487445E1 -1.890670053726615E1
1.604445314529097E1 -1.8930753595252742E1
1.606390152254855E1 -1.8954677148136696E1
1.608352516114118E1 -1.897858970796986E1
1.6103137947253064E1 -1.9002417877228655E1
1.6122645238631275E1 -1.9026127563861525E1
1.614227040543889E1 -1.904979508563626E1
1.615821098320523E1 -1.9072250015403284E1
1.6171838284107157E1 -1.9093964717942253E1
1.61854122401748E1 -1.9115659792974157E1
1.6198985678969613E1 -1.9137341694218428E1
1.621269059424765E1 -1.9159049413793525E1
1.6226415762359668E1 -1.9180755964680564E1
1.6240224150313892E1 -1.9202475957789137E1
1.6254004738523783E1 -1.9224179569011316E1
1.62678472528579E1 -1.924589468103994E1
1.6281782809899745E1 -1.926762726481073E1
1.629575584265117E1 -1.928935689413302E1
1.630975750893558E1 -1.9311088991249598E1
1.6323834847638498E1 -1.9332837852265015E1
1.633796106388316E1 -1.9354589972615774E1
1.6352143462183168E1 -1.9376351038109423E1
1.6366389798112277E1 -1.9398118809924117E1
1.6380709704940585E1 -1.9419900694281534E1
1.639502887131626E1 -1.944167448193645E1
1.6409398509373883E1 -1.9463454953004213E1
1.6423867917095777E1 -1.9485253238184995E1
1.6438364576072093E1 -1.950705150972892E1
1.6452915035880917E1 -1.9528855256605976E1
1.6467516881073333E1 -1.955066290155819E1
1.6482191897031527E1 -1.9572481174251642E1
1.6496878015270337E1 -1.959429315670381E1
1.6511625922910614E1 -1.961610959488234E1
1.65264447887464E1 -1.9637934899493455E1
1.6541269828783037E1 -1.9659751509489734E1
1.6556157258092178E1 -1.968157293970646E1
1.6571047787916537E1 -1.9703382691696067E1
1.658600564719558E1 -1.972519722502521E1
1.6601002800923055E1 -1.9747007888614107E1
1.6616023123970297E1 -1.976881129976826E1
1.663109169330382E1 -1.979061354672249E1
1.664618186484172E1 -1.981240461888203E1
1.6661308717592686E1 -1.9834189196635357E1
1.667640888019679E1 -1.9855954392149684E1
1.6691571505656018E1 -1.9877715556771648E1
1.6706747347804246E1 -1.9899462707279234E1
1.6719788054075455E1 -1.9920838774961265E1
1.673239336531497E1 -1.9942120746518924E1
1.674636142074881E1 -1.9963695891449195E1
1.675996231035915E1 -1.9985207394964753E1
1.6768374638759138E1 -2.000586228827323E1
1.6776787895508793E1 -2.0026444628339043E1
1.6785248288456636E1 -2.0046966219778394E1
1.679377692992017E1 -2.0067431498812116E1
1.6802409074525336E1 -2.0087858484471205E1
1.6811140907789028E1 -2.0108245306234725E1
1.6820152999426803E1 -2.012864476991877E1
1.682928227727577E1 -2.014902480293891E1
1.6838555480103953E1 -2.016939727210945E1
1.6848023229238855E1 -2.018978841441675E1
1.6863407261514052E1 -2.020905673165283E1
1.6886052971129246E1 -2.023357618729073E1
1.6908656446567655E1 -2.025780499822882E1
1.69308646858992E1 -2.02816572918802E1
1.695256601564587E1 -2.0305126938126815E1
1.6973909365118523E1 -2.0328293199154178E1
1.699469201485709E1 -2.0351125604762036E1
1.7009985029053386E1 -2.037292765050506E1
1.702415918331657E1 -2.039452282475674E1
1.7038360523246133E1 -2.0416099043734924E1
1.705259749153108E1 -2.0437657148570715E1
1.70362843918662E1 -2.045527543845013E1
1.7052156564071353E1 -2.0477023394678106E1
1.7068014039579182E1 -2.0498734002812075E1
1.7083890774426386E1 -2.0520404731844412E1
1.7099728258702534E1 -2.0542029904906485E1
1.711555341918235E1 -2.056360767758055E1
1.7131342359568E1 -2.05851432076505E1
1.7147091300230098E1 -2.060663132290422E1
1.7162812763849786E1 -2.0628072842437405E1
1.7178488457180283E1 -2.0649471584982983E1
1.719415919299086E1 -2.067082316907122E1
1.7209742327335967E1 -2.069212973765018E1
1.7225308733231042E1 -2.0713394368977994E1
1.724090245360021E1 -2.0734613572141534E1
1.7256423479350218E1 -2.075578479770042E1
1.7271965925814424E1 -2.0776912650564455E1
1.7287502387743004E1 -2.0797989299853846E1
1.730305821884282E1 -2.0819015888000983E1
1.731862587483851E1 -2.0839990097803767E1
1.73343278717276E1 -2.0860906596963876E1
1.7350071504676297E1 -2.088175796421039E1
1.7365944940300512E1 -2.0902537787242775E1
1.7381953249092977E1 -2.0923232524248686E1
1.7398182530895383E1 -2.094382843688857E1
1.7414639325749008E1 -2.0964310225909543E1
1.7429068062754638E1 -2.0985102163177242E1
1.74432539577175E1 -2.1005911376995876E1
1.7444746610175834E1 -2.1031955977696057E1
1.7458800710470324E1 -2.105286122051672E1
1.7472963544854245E1 -2.1073729856167255E1
1.7486304755047996E1 -2.109460900843257E1
1.7494572316842486E1 -2.111571458564585E1
1.7502510903370883E1 -2.1136752557737495E1
1.7510158725934545E1 -2.1157715157456565E1
1.7517405499910325E1 -2.1178583691091998E1
1.754524569226722E1 -2.1199170774577514E1
1.7562335792966223E1 -2.1219799602764237E1
1.7579420544065552E1 -2.1240297872413898E1
1.7596509565539186E1 -2.126065182351406E1
1.7613543792246137E1 -2.128085518335965E1
1.7630491889525747E1 -2.1300904171561886E1
1.7647368460896136E1 -2.13207854027589E1
1.7664110708531005E1 -2.1340502176471606E1
1.7461445443369602E1 -2.1316032829040623E1
1.7494789337776297E1 -2.1347537428649467E1
1.7523915498873603E1 -2.137621852055808E1
1.7552211449961124E1 -2.1403818081218006E1
1.758100287158624E1 -2.1430853149722942E1
1.7610114873231513E1 -2.1457159011484517E1
1.7639535296117707E1 -2.1482647466254747E1
1.7669149362931503E1 -2.150718678525905E1
1.7698823506703736E1 -2.1530657967709026E1
1.7715965368937695E1 -2.1551779146816443E1
1.7725761101592294E1 -2.1571904888419745E1
1.7736624594311902E1 -2.1592078287363808E1
1.7748550259555444E1 -2.1612321591271943E1
1.776162874006311E1 -2.1632653196975852E1
1.7775801223941016E1 -2.1653052554440528E1
1.7790987026417042E1 -2.1673494007337855E1
1.780715328579275E1 -2.1693935037506147E1
1.782091125531111E1 -2.1714304651347973E1
1.7823650513374627E1 -2.17346054240928E1
1.7811054298328774E1 -2.175274163919067E1
1.7848932514786153E1 -2.1776173715680045E1
1.786110385018167E1 -2.1796235939683733E1
1.788590782242356E1 -2.181704085388846E1
1.790521545950737E1 -2.1838057656288097E1
1.776339270121526E1 -2.178076595857385E1
1.776317430899824E1 -2.178980962843327E1
1.7788931065642526E1 -2.1822716991177533E1
1.7864051774952873E1 -2.188238840039239E1
1.792440432424049E1 -2.1920842702215445E1
1.7921841994584813E1 -2.1941665045656706E1
1.7978121671765145E1 -2.1958970885801254E1
1.79757483791717E1 -2.1978991246361407E1
1.8031374815467345E1 -2.2006644893344248E1
1.7883411052903394E1 -2.184083907772054E1
1.8000519467890353E1 -2.1953633629812277E1
1.8063990507272546E1 -2.2079798127837524E1
1.8340955484404468E1 -2.2297579223813994E1
1.830572170997648E1 -2.232395630312999E1
1.8136874032930294E1 -2.2172802677240423E1
1.8147278413325743E1 -2.223941863453533E1
1.8153354443770247E1 -2.2294770337063E1
1.816255089822229E1 -2.2285014385973586E1
1.8175817071333796E1 -2.2305912306768963E1
1.8202668479336356E1 -2.237746482814797E1
1.819219006102922E1 -2.228632423642096E1
1.8202933599148093E1 -2.2385019840850422E1
1.820494413280769E1 -2.239730853135048E1
1.8267520846731696E1 -2.255320447305957E1
1.8052572985036967E1 -2.230316714404206E1
1.8247825915356962E1 -2.239940216326433E1
1.806283219298852E1 -2.234290172135536E1
1.8213185073293083E1 -2.2413248411313216E1
1.8182074916509322E1 -2.24172474172154E1
1.8095836453285816E1 -2.2408004321326228E1
1.808903061158071E1 -2.241926386797361E1
1.821128646968172E1 -2.2467007281184852E1
1.821262665324962E1 -2.2483661887676078E1
1.8235636298656527E1 -2.2508650774754397E1
1.82581513961054E1 -2.2532741815728127E1
1.827237789389176E1 -2.255395208124802E1
1.827956814193727E1 -2.2572999359096702E1
1.8279872218469745E1 -2.2589593969284454E1
1.8277555879296035E1 -2.260452877542123E1
1.8277507102717763E1 -2.261963513607139E1
1.8285270788414632E1 -2.263806133301115E1
1.8300256337145353E1 -2.266024537312305E1
1.830817397382116E1 -2.2679978664854083E1
1.842205161197974E1 -2.273608067955815E1
1.843089699922445E1 -2.2756119477596386E1
1.844073444986742E1 -2.2775853455614822E1
1.8451792548419146E1 -2.2795306489127555E1
1.8464209022875146E1 -2.2814502021819077E1
1.846695417271108E1 -2.283833429137587E1
1.845067126025472E1 -2.2858110731451628E1
1.847767637000851E1 -2.2878823211536496E1
1.8495418557490247E1 -2.2898623727253188E1
1.851069093516219E1 -2.2918532962594682E1
1.8524162969883722E1 -2.2938636299948644E1
1.853731451165422E1 -2.2958737737579156E1
1.8547475433545152E1 -2.297926690770273E1
1.8558511604899106E1 -2.2999681125650774E1
1.857048635890088E1 -2.301996284274353E1
1.8583419417201434E1 -2.3040079822624556E1
1.8597278458791738E1 -2.3059988684205027E1
1.8609463431133783E1 -2.3079974260785246E1
1.8608897061112817E1 -2.310108860389808E1
1.860736141032274E1 -2.3121462252215785E1
1.860062147656762E1 -2.3140813796129997E1
1.8593081322144233E1 -2.315862986088795E1
1.8585090235215887E1 -2.3174937500391238E1
1.8577027270339066E1 -2.3189875503026947E1
1.856907809268709E1 -2.320359823419706E1
1.85614504140628E1 -2.3216312613875065E1
1.86586534151624E1 -2.325307719467045E1
1.868339961421953E1 -2.3274852883571956E1
1.863462712976306E1 -2.328854475054978E1
1.8639172475946182E1 -2.3307258221537655E1
1.8644771472425045E1 -2.3326146735430857E1
1.8651568298275645E1 -2.3345264245734942E1
1.8659613188331836E1 -2.3364627526372143E1
1.8668988407795013E1 -2.338425373632176E1
1.867977937019012E1 -2.3404149902127372E1
1.8692077248147097E1 -2.34242901538777E1
1.8811033145810537E1 -2.345072752601942E1
1.882181172396029E1 -2.3470435181073288E1
1.8828957294826647E1 -2.3490297672206356E1
1.8837876013414967E1 -2.351034603986514E1
1.8848932309251268E1 -2.3530573530319607E1
1.886285910826606E1 -2.3550809194449037E1
1.887801092576393E1 -2.3570838879544944E1
1.888752917868408E1 -2.3591066861601124E1
1.8892299606451935E1 -2.3611281347952126E1
1.8896759092982713E1 -2.363252869863933E1
1.8903201233501445E1 -2.365337892498187E1
1.8912263253001385E1 -2.3673769777594686E1
1.8924695546477526E1 -2.369354899112116E1
1.8938190265425167E1 -2.370634546550296E1
1.894151006676977E1 -2.372692088033947E1
1.8951809359924138E1 -2.374708919422958E1
1.8952482759462153E1 -2.375839174886553E1
1.8880301648175102E1 -2.3727670913048303E1
1.8900565947721176E1 -2.375406595683824E1
1.891599959211439E1 -2.3733178551914623E1
1.8874096501909953E1 -2.3654658884713225E1
1.8969904572984245E1 -2.3771462105592676E1
1.8970210068467733E1 -2.3767362518334995E1
1.9070742840626796E1 -2.3900893200168646E1
1.908156899426422E1 -2.3926037073862354E1
1.9226919765419737E1 -2.404267026289915E1
1.920537810818433E1 -2.405004887008306E1
1.931687111477552E1 -2.4147904111607648E1
1.9236239596947375E1 -2.412555219549906E1
1.9211481837364826E1 -2.4171373570969212E1
1.9227032112866326E1 -2.4198417406735746E1
1.9176125953215266E1 -2.4136681085220015E1
1.9176145495364917E1 -2.4134617311449894E1
1.9186020385278095E1 -2.415401540412701E1
1.9195986993693488E1 -2.4165962537081704E1
1.920042797153527E1 -2.4200537589069935E1
1.921034241870024E1 -2.4220518728077415E1
1.922056633731912E1 -2.423729103054861E1
1.9231062953075188E1 -2.425164852592738E1
1.9241850086705643E1 -2.426422425767218E1
1.9251581276857774E1 -2.428473323832126E1
1.926167798489302E1 -2.430353138868806E1
1.9271845877789126E1 -2.432610640172357E1
1.9282155992565606E1 -2.434974397104753E1
1.9292446274609222E1 -2.4371257124017266E1
1.9302413438171534E1 -2.4389710590798206E1
1.9312177930927575E1 -2.440655386415394E1
1.9322317203938326E1 -2.4430543172166022E1
1.9359782269216282E1 -2.4573961573370728E1
1.9371320431784124E1 -2.4596359515867935E1
1.9382570286038643E1 -2.4617607813840586E1
1.9393445740755077E1 -2.4637827600867986E1
1.9403989039386687E1 -2.4657077402940295E1
1.9414163304906136E1 -2.467537877565581E1
1.9423957341462643E1 -2.4692828102695493E1
1.9433376913426684E1 -2.4709391824747605E1
1.9435075710074013E1 -2.470478922359059E1
1.944822507640576E1 -2.472863002147662E1
1.9482236512843002E1 -2.478574394400412E1
1.9431090708709817E1 -2.465248622671222E1
1.9441317498377245E1 -2.4669663866245944E1
1.9451555847723657E1 -2.4686978457152204E1
1.946182767376802E1 -2.4704337007320394E1
1.947212380293774E1 -2.4721752778074926E1
1.9482147120365244E1 -2.4740033524580724E1
1.9492022511880037E1 -2.4758744912411256E1
1.950187159099365E1 -2.4777518931315754E1
1.9511706740782653E1 -2.479632570923071E1
1.9425095542474285E1 -2.4800328981262403E1
1.9432129429194834E1 -2.4819184968096323E1
1.943931117350163E1 -2.483805789691716E1
1.944653799485113E1 -2.485690977252418E1
1.9453809199965136E1 -2.4875744763807866E1
1.946113863010581E1 -2.4894571888377133E1
1.9468499539322266E1 -2.4913380672882145E1
1.947596095237631E1 -2.493220366012495E1
1.9483514479815643E1 -2.4951034681747824E1
1.949106295506876E1 -2.4969847483067085E1
1.9498694860189755E1 -2.4988663364162665E1
1.9569190311774335E1 -2.501650816064039E1
1.958081816713428E1 -2.5036283684447874E1
1.959249703226368E1 -2.5056035058387348E1
1.9604123205419626E1 -2.5075747642256964E1
1.9615800252573557E1 -2.509543224607118E1
1.9627338060938282E1 -2.5115075237757704E1
1.9638887306462845E1 -2.5134688139087704E1
1.9650470103577085E1 -2.515426976234888E1
1.9661892397548783E1 -2.5173820239035987E1
1.9673276911453563E1 -2.5193342281417447E1
1.9684682260144424E1 -2.5212834018092515E1
1.969537172847531E1 -2.5232324291048485E1
1.9704496575623853E1 -2.525186285782656E1
1.9713628136657817E1 -2.5271398540914802E1
1.9722769543420185E1 -2.5290925748696687E1
1.9731925199665056E1 -2.531044646625803E1
1.9701629226254497E1 -2.532977209418235E1
1.971092775263783E1 -2.534925607735603E1
1.972023823392343E1 -2.5368735932738637E1
1.972958467577389E1 -2.5388218065724857E1
1.9738931639878192E1 -2.5407695584000972E1
1.9748300707422985E1 -2.5427172554908093E1
1.975769813982521E1 -2.5446648346369145E1
1.9767104608595265E1 -2.5466118626820784E1
1.977651206885168E1 -2.548558793437394E1
1.9786735992106166E1 -2.5505156272004037E1
1.9797238364660643E1 -2.5524753137017488E1
1.9807738021497673E1 -2.5544339140864377E1
1.981822214088709E1 -2.556391378520439E1
1.9828715530229047E1 -2.558347789966751E1
1.983919484869368E1 -2.5603030422211226E1
1.984967145202897E1 -2.562257260896258E1
1.9860147876607314E1 -2.5642104687975777E1
1.9905323427874645E1 -2.5660229272132916E1
1.9915363216401236E1 -2.5679556634208332E1
1.9925383524076263E1 -2.5698872210743954E1
1.9935398300734576E1 -2.571818081338186E1
1.994539166867841E1 -2.5737480214370933E1
1.995483439835661E1 -2.5756823860404733E1
1.9962959254077013E1 -2.5776291972559278E1
1.9971099237457217E1 -2.579574430044118E1
1.9979248303371595E1 -2.5815182778857015E1
1.9987362207714586E1 -2.5834611961126125E1
1.999548254334314E1 -2.585402780622554E1
2.000362083321729E1 -2.587342804597214E1
2.001172451711105E1 -2.5892817708083545E1
2.0019847136503934E1 -2.591219259155025E1
2.0027979020712753E1 -2.5931554242521205E1
2.0036118166375374E1 -2.5950903174693575E1
2.0044264424749347E1 -2.5970240330372828E1
2.0013635829702643E1 -2.5988149546083047E1
2.002525303148653E1 -2.6008020990722652E1
2.003683484254449E1 -2.602785137705603E1
2.0048425378645337E1 -2.604764501976147E1
2.006001853715375E1 -2.606740028014666E1
2.0071581421991784E1 -2.6087108435457925E1
2.008311873651863E1 -2.6106771451722842E1
2.009469014285927E1 -2.6126403273610716E1
2.010622061986699E1 -2.6145986360999338E1
2.0117746114710194E1 -2.6165526933298345E1
2.012920503412577E1 -2.6185015987119133E1
2.014068924150041E1 -2.620446397510883E1
2.0152133829841247E1 -2.6223864853829646E1
2.016355468601096E1 -2.624321843389426E1
2.0174927641369855E1 -2.6262523807856947E1
2.0186303872493003E1 -2.6281785898892284E1
2.0197632418727004E1 -2.6300996705320777E1
2.0208918035440586E1 -2.6320160713842693E1
2.0220195874895257E1 -2.633927409398697E1
2.023140230778723E1 -2.6358339241786556E1
2.024259019765367E1 -2.6377354777241237E1
2.0253749127566564E1 -2.6396320337010884E1
2.026483495417658E1 -2.6415238769826686E1
2.027591094560008E1 -2.6434102769630346E1
2.0286895248708436E1 -2.6452921481477194E1
2.029786850795239E1 -2.6471685583232777E1
2.030877426294458E1 -2.6490400728678264E1
2.031929174870155E1 -2.650916246251309E1
2.032916203412263E1 -2.6528071937898783E1
2.019311890839674E1 -2.6517055684183152E1
2.020588056999939E1 -2.6538433437229287E1
2.0218584087641396E1 -2.6559717393501867E1
2.0231332379139957E1 -2.658095974065871E1
2.0244024293691176E1 -2.6602104312004318E1
2.0256711999595712E1 -2.6623188362965177E1
2.026935629833276E1 -2.6644180486436493E1
2.028201736228054E1 -2.6665119344770645E1
2.0294633090071184E1 -2.668597323106871E1
2.0307259523757672E1 -2.670676291161938E1
2.0319804833063444E1 -2.6727454849421402E1
2.033230555627435E1 -2.6748063034628853E1
2.034483120924908E1 -2.6768621805257457E1
2.035728018755368E1 -2.6789080317933497E1
2.0369714058382186E1 -2.680947646276218E1
2.0382078980765687E1 -2.6829775681691874E1
2.039442145925356E1 -2.685000945946148E1
2.0406740957161148E1 -2.6870174385043043E1
2.041898467580882E1 -2.68902455700251E1
2.043118600648117E1 -2.691024690425136E1
2.04433533932604E1 -2.6930174700376806E1
2.045544196632268E1 -2.69500183804065E1
2.0467475677201186E1 -2.696978886593523E1
2.0479467102290126E1 -2.698948475707632E1
2.048945251934645E1 -2.700880620324429E1
2.0497754888372523E1 -2.702784303690168E1
2.050609100418586E1 -2.7046880645803334E1
2.0514415604271576E1 -2.706591456328702E1
2.052277867098127E1 -2.7084949861565075E1
2.0531192401731737E1 -2.710398644562034E1
2.053961833480354E1 -2.712302159794185E1
2.054804372649148E1 -2.714205621594349E1
2.0556528847447755E1 -2.716109048427103E1
2.0565019457127036E1 -2.7180127012239602E1
2.0573546299496257E1 -2.7199161407179304E1
2.058206256259578E1 -2.7218196657522107E1
2.059062541330457E1 -2.723723083172062E1
2.0599209727371314E1 -2.725626528056468E1
2.0607821234873544E1 -2.7275298494525313E1
2.061644113708023E1 -2.7294331335425287E1
2.062507991547544E1 -2.731336451228711E1
2.063372390848614E1 -2.733239573191103E1
2.0642400272254434E1 -2.7351426347208076E1
2.0651088702109668E1 -2.7370452660787695E1
2.0659787004794232E1 -2.738948069653353E1
2.06685090507981E1 -2.740850617290698E1
2.0677229006566638E1 -2.7427528788518583E1
2.0685967630120782E1 -2.7446547783944826E1
2.069472178597292E1 -2.7465565684291334E1
2.070348878499706E1 -2.7484582976641526E1
2.0712250475295107E1 -2.7503592639913194E1
2.072103673984386E1 -2.7522602338917494E1
2.0729811063435214E1 -2.7541608401238708E1
2.0738602539375552E1 -2.756060878655892E1
2.0747397226096638E1 -2.75796068271852E1
2.0756177312532046E1 -2.7598600426613416E1
2.0764985085628226E1 -2.7617587520127188E1
2.077377366667793E1 -2.7636572674715598E1
2.0781870645791585E1 -2.765547336705799E1
2.0788532218164278E1 -2.767419866807952E1
2.0795273254857918E1 -2.7692895016690766E1
2.0801993782340364E1 -2.771155929890272E1
2.0808781923532152E1 -2.7730199767700157E1
2.0815664466976123E1 -2.774882403171765E1
2.082250755828296E1 -2.7767418014283546E1
2.082943727863452E1 -2.778599634445048E1
2.0836387707270084E1 -2.7804557140281155E1
2.0843391015912438E1 -2.7823106395480163E1
2.0850453249422767E1 -2.7841649808089162E1
2.085752986664513E1 -2.7860180311663235E1
2.0864680919964044E1 -2.7878718346231892E1
2.091056196506085E1 -2.7899571603956893E1
2.092282576999743E1 -2.7918562063883268E1
2.0935029692606037E1 -2.793738077763119E1
2.0947095035104642E1 -2.795603642482366E1
2.09589904199991E1 -2.7974541937163515E1
2.0967963638099967E1 -2.799341869615688E1
2.095444427510187E1 -2.8015418818511243E1
2.0963306656939853E1 -2.8034411876836685E1
2.0972255211597492E1 -2.8053382433693713E1
2.098129291689307E1 -2.8072324785167787E1
2.0990412991071544E1 -2.809123714422158E1
2.099961722216629E1 -2.8110113756043404E1
2.1008900290257692E1 -2.8128954443806382E1
2.101826855818321E1 -2.8147755820768715E1
2.102771316681145E1 -2.816651253795853E1
2.1037238349338654E1 -2.8185223369388144E1
2.1046808704201126E1 -2.8203886003212343E1
2.1056452831523764E1 -2.8222494840560344E1
2.106615586632121E1 -2.8241047999139106E1
2.107593917263642E1 -2.825953655309354E1
2.0967243176818045E1 -2.823996191583088E1
2.0980895793993472E1 -2.8262347081284965E1
2.099477882885526E1 -2.8284604614040724E1
2.1002210917076862E1 -2.830332476552615E1
2.1009524960725262E1 -2.832196307253762E1
2.1069511599242006E1 -2.835030456251948E1
2.107331618513818E1 -2.836690939823754E1
2.103807868491164E1 -2.8361650620968774E1
2.1061765259487412E1 -2.8400181210816996E1
2.1068391418270668E1 -2.8419510292771935E1
2.107479165149948E1 -2.843792489093829E1
2.1081474508951832E1 -2.8456443835288272E1
2.1088389850610213E1 -2.8475048923174622E1
2.1095564268956316E1 -2.8493751735881066E1
2.1102988971981745E1 -2.8512545707505126E1
2.1110626671618988E1 -2.8531422188441006E1
2.111848895750713E1 -2.85503822633831E1
2.1126580054227183E1 -2.8569426863446456E1
2.11758638649163E1 -2.8598008822521436E1
2.118877683835581E1 -2.861918971391467E1
2.1202391170990683E1 -2.8640367100824765E1
2.121666066312787E1 -2.866142253349197E1
2.1231497422674106E1 -2.8682224265055765E1
2.124612839844646E1 -2.87025108888541E1
2.1255573183817692E1 -2.872159574048954E1
2.1262595725585996E1 -2.8740372346243166E1
2.1263684114481585E1 -2.8757485344501017E1
2.127561571966334E1 -2.8777785476417463E1
2.1288124831173132E1 -2.879781480026551E1
2.1301228092208603E1 -2.8817489850168457E1
2.131479291214887E1 -2.883669920045776E1
2.1321670152524153E1 -2.885562098961014E1
2.132810444966145E1 -2.8874514249295267E1
2.1334640409067795E1 -2.889338012394825E1
2.141697591562022E1 -2.9001275888486767E1
2.1422250117657992E1 -2.9017257773650496E1
2.1427310993348883E1 -2.9032868374030414E1
2.1432134831982758E1 -2.904805538544079E1
2.1436797135092263E1 -2.906285510742923E1
2.1441217524845182E1 -2.9077073069683156E1
2.144540172829312E1 -2.9090627242155975E1
