%%MatrixMarket matrix array real general
%
1000 1
6.283185307179586
1.2566370614359172E1
1.884955592153876E1
2.5132741228718345E1
3.141592653589793E1
3.769911184307752E1
4.3982297150257104E1
5.026548245743669E1
5.6548667764616276E1
6.283185307179586E1
6.911503837897544E1
7.539822368615503E1
8.168140899333463E1
8.796459430051422E1
9.424777960769379E1
1.0053096491487338E2
1.0681415022205297E2
1.1309733552923257E2
1.1938052083641213E2
1.2566370614359172E2
1.3194689145077132E2
1.382300767579509E2
1.4451326206513048E2
1.5079644737231007E2
1.5707963267948966E2
1.6336281798666926E2
1.6964600329384885E2
1.7592918860102841E2
1.82212373908208E2
1.884955592153876E2
1.9477874452256717E2
2.0106192982974676E2
2.0734511513692635E2
2.1362830044410595E2
2.1991148575128554E2
2.261946710584651E2
2.324778563656447E2
2.387610416728243E2
2.4504422698000386E2
2.5132741228718345E2
2.57610597594363E2
2.638937829015426E2
2.701769682087222E2
2.7646015351590177E2
2.8274333882308133E2
2.8902652413026095E2
2.953097094374405E2
3.0159289474462014E2
3.078760800517997E2
3.1415926535897927E2
3.204424506661589E2
3.2672563597333846E2
3.330088212805181E2
3.3929200658769764E2
3.455751918948772E2
3.5185837720205683E2
3.581415625092364E2
3.6442474781641596E2
3.707079331235956E2
3.7699111843077515E2
3.832743037379547E2
3.8955748904513433E2
3.958406743523139E2
4.021238596594935E2
4.084070449666731E2
4.1469023027385265E2
4.2097341558103227E2
4.2725660088821184E2
4.3353978619539146E2
4.39822971502571E2
4.461061568097506E2
4.523893421169302E2
4.586725274241098E2
4.6495571273128934E2
4.7123889803846896E2
4.775220833456485E2
4.838052686528281E2
4.900884539600077E2
4.963716392671873E2
5.026548245743669E2
5.0893800988154646E2
5.15221195188726E2
5.215043804959056E2
5.277875658030853E2
5.340707511102648E2
5.403539364174444E2
5.46637121724624E2
5.529203070318035E2
5.592034923389831E2
5.654866776461628E2
5.717698629533423E2
5.780530482605219E2
5.843362335677015E2
5.90619418874881E2
5.969026041820607E2
6.031857894892403E2
6.094689747964198E2
6.157521601035994E2
6.22035345410779E2
6.283185307179587E2
6.346017160251382E2
6.408849013323178E2
6.471680866394973E2
6.534512719466769E2
6.597344572538566E2
6.660176425610362E2
6.723008278682157E2
6.785840131753953E2
6.848671984825748E2
6.911503837897544E2
6.974335690969341E2
7.037167544041137E2
7.099999397112932E2
7.162831250184728E2
7.225663103256524E2
7.28849495632832E2
7.351326809400116E2
7.414158662471912E2
7.476990515543707E2
7.539822368615503E2
7.602654221687299E2
7.665486074759095E2
7.728317927830891E2
7.791149780902687E2
7.853981633974482E2
7.916813487046278E2
7.979645340118075E2
8.04247719318987E2
8.105309046261666E2
8.168140899333462E2
8.230972752405257E2
8.293804605477054E2
8.35663645854885E2
8.419468311620645E2
8.482300164692441E2
8.545132017764237E2
8.607963870836033E2
8.670795723907829E2
8.733627576979625E2
8.79645943005142E2
8.859291283123216E2
8.922123136195012E2
8.984954989266809E2
9.047786842338604E2
9.1106186954104E2
9.173450548482195E2
9.236282401553991E2
9.299114254625788E2
9.361946107697584E2
9.424777960769379E2
9.487609813841175E2
9.55044166691297E2
9.613273519984766E2
9.676105373056563E2
9.738937226128359E2
9.801769079200154E2
9.86460093227195E2
9.927432785343746E2
9.990264638415542E2
1.0053096491487338E3
1.0115928344559134E3
1.0178760197630929E3
1.0241592050702725E3
1.030442390377452E3
1.0367255756846316E3
1.0430087609918112E3
1.049291946298991E3
1.0555751316061705E3
1.06185831691335E3
1.0681415022205297E3
1.0744246875277092E3
1.0807078728348888E3
1.0869910581420684E3
1.093274243449248E3
1.0995574287564275E3
1.105840614063607E3
1.1121237993707866E3
1.1184069846779664E3
1.124690169985146E3
1.1309733552923256E3
1.1372565405995051E3
1.1435397259066847E3
1.1498229112138642E3
1.1561060965210438E3
1.1623892818282234E3
1.168672467135403E3
1.1749556524425825E3
1.1812388377497623E3
1.1875220230569419E3
1.1938052083641214E3
1.200088393671301E3
1.2063715789784806E3
1.2126547642856601E3
1.2189379495928397E3
1.2252211349000193E3
1.2315043202071988E3
1.2377875055143784E3
1.244070690821558E3
1.2503538761287377E3
1.2566370614359173E3
1.2629202467430969E3
1.2692034320502764E3
1.275486617357456E3
1.2817698026646356E3
1.2880529879718151E3
1.2943361732789947E3
1.3006193585861743E3
1.3069025438933538E3
1.3131857292005336E3
1.3194689145077132E3
1.3257520998148927E3
1.3320352851220723E3
1.3383184704292519E3
1.3446016557364314E3
1.350884841043611E3
1.3571680263507906E3
1.3634512116579701E3
1.3697343969651497E3
1.3760175822723293E3
1.382300767579509E3
1.3885839528866886E3
1.3948671381938682E3
1.4011503235010478E3
1.4074335088082273E3
1.4137166941154069E3
1.4199998794225864E3
1.426283064729766E3
1.4325662500369456E3
1.4388494353441251E3
1.4451326206513047E3
1.4514158059584845E3
1.457698991265664E3
1.4639821765728436E3
1.4702653618800232E3
1.4765485471872028E3
1.4828317324943823E3
1.489114917801562E3
1.4953981031087415E3
1.501681288415921E3
1.5079644737231006E3
1.5142476590302801E3
1.52053084433746E3
1.5268140296446395E3
1.533097214951819E3
1.5393804002589986E3
1.5456635855661782E3
1.5519467708733578E3
1.5582299561805373E3
1.564513141487717E3
1.5707963267948965E3
1.577079512102076E3
1.5833626974092558E3
1.5896458827164354E3
1.595929068023615E3
1.6022122533307945E3
1.608495438637974E3
1.6147786239451536E3
1.6210618092523332E3
1.6273449945595128E3
1.6336281798666923E3
1.639911365173872E3
1.6461945504810515E3
1.6524777357882313E3
1.6587609210954108E3
1.6650441064025904E3
1.67132729170977E3
1.6776104770169495E3
1.683893662324129E3
1.6901768476313086E3
1.6964600329384882E3
1.7027432182456678E3
1.7090264035528473E3
1.7153095888600271E3
1.7215927741672067E3
1.7278759594743863E3
1.7341591447815658E3
1.7404423300887454E3
1.746725515395925E3
1.7530087007031045E3
1.759291886010284E3
1.7655750713174637E3
1.7718582566246432E3
1.7781414419318228E3
1.7844246272390026E3
1.7907078125461821E3
1.7969909978533617E3
1.8032741831605413E3
1.8095573684677208E3
1.8158405537749004E3
1.82212373908208E3
1.8284069243892595E3
1.834690109696439E3
1.8409732950036187E3
1.8472564803107982E3
1.853539665617978E3
1.8598228509251576E3
1.8661060362323371E3
1.8723892215395167E3
1.8786724068466963E3
1.8849555921538758E3
1.8912387774610554E3
1.897521962768235E3
1.9038051480754145E3
1.910088333382594E3
1.9163715186897737E3
1.9226547039969535E3
1.928937889304133E3
1.9352210746113126E3
1.9415042599184922E3
1.9477874452256717E3
1.9540706305328513E3
1.9603538158400308E3
1.9666370011472104E3
1.97292018645439E3
1.9792033717615695E3
1.9854865570687493E3
1.991769742375929E3
1.9980529276831085E3
2.004336112990288E3
2.0106192982974676E3
2.0169024836046472E3
2.0231856689118267E3
2.0294688542190063E3
2.0357520395261859E3
2.0420352248333654E3
2.048318410140545E3
2.054601595447725E3
2.0608847807549046E3
2.067167966062084E3
2.0734511513692637E3
2.079734336676443E3
2.086017521983623E3
2.0923007072908026E3
2.098583892597982E3
2.1048670779051618E3
2.111150263212341E3
2.117433448519521E3
2.1237166338267E3
2.12999981913388E3
2.1362830044410593E3
2.142566189748239E3
2.1488493750554185E3
2.1551325603625983E3
2.161415745669778E3
2.1676989309769574E3
2.173982116284137E3
2.1802653015913165E3
2.1865484868984963E3
2.1928316722056757E3
2.1991148575128555E3
2.205398042820035E3
2.2116812281272146E3
2.217964413434394E3
2.2242475987415737E3
2.2305307840487535E3
2.236813969355933E3
2.2430971546631126E3
2.249380339970292E3
2.2556635252774718E3
2.261946710584651E3
2.268229895891831E3
2.2745130811990102E3
2.28079626650619E3
2.28707945181337E3
2.293362637120549E3
2.299645822427729E3
2.3059290077349083E3
2.312212193042088E3
2.3184953783492674E3
2.324778563656447E3
2.3310617489636265E3
2.3373449342708063E3
2.3436281195779857E3
2.3499113048851655E3
2.3561944901923453E3
2.3624776754995246E3
2.3687608608067044E3
2.3750440461138837E3
2.3813272314210635E3
2.387610416728243E3
2.3938936020354226E3
2.400176787342602E3
2.406459972649782E3
2.412743157956961E3
2.419026343264141E3
2.4253095285713207E3
2.4315927138785E3
2.43787589918568E3
2.444159084492859E3
2.450442269800039E3
2.4567254551072183E3
2.463008640414398E3
2.4692918257215774E3
2.475575011028757E3
2.4818581963359366E3
2.4881413816431163E3
2.494424566950296E3
2.5007077522574755E3
2.5069909375646553E3
2.5132741228718346E3
2.5195573081790144E3
2.5258404934861937E3
2.5321236787933735E3
2.538406864100553E3
2.5446900494077327E3
2.550973234714912E3
2.557256420022092E3
2.5635396053292716E3
2.569822790636451E3
2.5761059759436307E3
2.58238916125081E3
2.58867234655799E3
2.594955531865169E3
2.601238717172349E3
2.6075219024795283E3
2.613805087786708E3
2.620088273093888E3
2.6263714584010672E3
2.632654643708247E3
2.6389378290154264E3
2.645221014322606E3
2.6515041996297855E3
2.6577873849369653E3
2.6640705702441446E3
2.6703537555513244E3
2.6766369408585037E3
2.6829201261656835E3
2.6892033114728633E3
2.6954864967800427E3
2.7017696820872225E3
2.708052867394402E3
2.7143360527015816E3
2.720619238008761E3
2.7269024233159407E3
2.73318560862312E3
2.7394687939303E3
2.745751979237479E3
2.752035164544659E3
2.758318349851839E3
2.764601535159018E3
2.770884720466198E3
2.7771679057733772E3
2.783451091080557E3
2.7897342763877364E3
2.796017461694916E3
2.8023006470020955E3
2.8085838323092753E3
2.8148670176164546E3
2.8211502029236344E3
2.827433388230814E3
2.8337165735379936E3
2.8399997588451733E3
2.8462829441523527E3
2.8525661294595325E3
2.858849314766712E3
2.8651325000738916E3
2.871415685381071E3
2.8776988706882507E3
2.88398205599543E3
2.89026524130261E3
2.8965484266097897E3
2.902831611916969E3
2.909114797224149E3
2.915397982531328E3
2.921681167838508E3
2.9279643531456873E3
2.934247538452867E3
2.9405307237600464E3
2.946813909067226E3
2.9530970943744055E3
2.9593802796815853E3
2.965663464988765E3
2.9719466502959444E3
2.9782298356031242E3
2.9845130209103036E3
2.9907962062174834E3
2.9970793915246627E3
3.0033625768318425E3
3.009645762139022E3
3.0159289474462016E3
3.022212132753381E3
3.0284953180605607E3
3.0347785033677405E3
3.04106168867492E3
3.0473448739820997E3
3.053628059289279E3
3.059911244596459E3
3.066194429903638E3
3.072477615210818E3
3.0787608005179973E3
3.085043985825177E3
3.091327171132357E3
3.097610356439536E3
3.103893541746716E3
3.1101767270538953E3
3.116459912361075E3
3.1227430976682544E3
3.1290262829754342E3
3.1353094682826136E3
3.1415926535897934E3
3.1478758388969727E3
3.1541590242041525E3
3.1604422095113323E3
3.1667253948185116E3
3.1730085801256914E3
3.1792917654328708E3
3.1855749507400506E3
3.19185813604723E3
3.1981413213544097E3
3.204424506661589E3
3.210707691968769E3
3.216990877275948E3
3.223274062583128E3
3.2295572478903077E3
3.235840433197487E3
3.242123618504667E3
3.248406803811846E3
3.254689989119026E3
3.2609731744262053E3
3.267256359733385E3
3.2735395450405645E3
3.2798227303477443E3
3.2861059156549236E3
3.2923891009621034E3
3.298672286269283E3
3.3049554715764625E3
3.3112386568836423E3
3.3175218421908216E3
3.3238050274980014E3
3.330088212805181E3
3.3363713981123606E3
3.34265458341954E3
3.3489377687267197E3
3.355220954033899E3
3.361504139341079E3
3.3677873246482586E3
3.374070509955438E3
3.3803536952626177E3
3.386636880569797E3
3.392920065876977E3
3.399203251184156E3
3.405486436491336E3
3.4117696217985153E3
3.418052807105695E3
3.424335992412875E3
3.4306191777200543E3
3.436902363027234E3
3.4431855483344134E3
3.449468733641593E3
3.4557519189487725E3
3.4620351042559523E3
3.4683182895631317E3
3.4746014748703114E3
3.480884660177491E3
3.4871678454846706E3
3.4934510307918504E3
3.4997342160990297E3
3.5060174014062095E3
3.512300586713389E3
3.5185837720205686E3
3.524866957327748E3
3.5311501426349278E3
3.537433327942107E3
3.543716513249287E3
3.5499996985564662E3
3.556282883863646E3
3.562566069170826E3
3.568849254478005E3
3.575132439785185E3
3.5814156250923643E3
3.587698810399544E3
3.5939819957067234E3
3.600265181013903E3
3.6065483663210825E3
3.6128315516282623E3
3.6191147369354417E3
3.6253979222426215E3
3.6316811075498013E3
3.6379642928569806E3
3.6442474781641604E3
3.6505306634713397E3
3.6568138487785195E3
3.663097034085699E3
3.6693802193928786E3
3.675663404700058E3
3.681946590007238E3
3.688229775314417E3
3.694512960621597E3
3.7007961459287767E3
3.707079331235956E3
3.713362516543136E3
3.719645701850315E3
3.725928887157495E3
3.7322120724646743E3
3.738495257771854E3
3.7447784430790334E3
3.751061628386213E3
3.7573448136933926E3
3.7636279990005723E3
3.769911184307752E3
3.7761943696149315E3
3.7824775549221113E3
3.7887607402292906E3
3.7950439255364704E3
3.8013271108436497E3
3.8076102961508295E3
3.813893481458009E3
3.8201766667651887E3
3.826459852072368E3
3.832743037379548E3
3.8390262226867276E3
3.845309407993907E3
3.8515925933010867E3
3.857875778608266E3
3.864158963915446E3
3.870442149222625E3
3.876725334529805E3
3.8830085198369843E3
3.889291705144164E3
3.895574890451344E3
3.9018580757585232E3
3.908141261065703E3
3.9144244463728824E3
3.920707631680062E3
3.9269908169872415E3
3.9332740022944213E3
3.9395571876016006E3
3.9458403729087804E3
3.9521235582159597E3
3.9584067435231395E3
3.9646899288303193E3
3.9709731141374987E3
3.9772562994446785E3
3.983539484751858E3
3.9898226700590376E3
3.996105855366217E3
4.0023890406733967E3
4.008672225980576E3
4.014955411287756E3
4.021238596594935E3
4.027521781902115E3
4.033804967209295E3
4.040088152516474E3
4.046371337823654E3
4.0526545231308332E3
4.058937708438013E3
4.0652208937451924E3
4.071504079052372E3
4.0777872643595515E3
4.0840704496667313E3
4.0903536349739106E3
4.09663682028109E3
4.102920005588269E3
4.10920319089545E3
4.115486376202629E3
4.121769561509808E3
4.128052746816988E3
4.134335932124168E3
4.140619117431347E3
4.1469023027385265E3
4.153185488045706E3
4.159468673352886E3
4.165751858660065E3
4.172035043967245E3
4.178318229274425E3
4.184601414581604E3
4.190884599888784E3
4.197167785195963E3
4.203450970503143E3
4.209734155810323E3
4.216017341117502E3
4.222300526424681E3
4.2285837117318615E3
4.234866897039041E3
4.24115008234622E3
4.2474332676534E3
4.25371645296058E3
4.259999638267759E3
4.266282823574938E3
4.272566008882119E3
4.278849194189298E3
4.285132379496477E3
4.291415564803657E3
4.297698750110837E3
4.303981935418016E3
4.310265120725196E3
4.316548306032376E3
4.322831491339555E3
4.329114676646735E3
4.335397861953914E3
4.341681047261094E3
4.3479642325682735E3
4.354247417875453E3
4.360530603182632E3
4.366813788489812E3
4.373096973796992E3
4.379380159104171E3
4.385663344411351E3
4.391946529718531E3
4.39822971502571E3
4.404512900332889E3
4.41079608564007E3
4.417079270947249E3
4.423362456254428E3
4.429645641561608E3
4.435928826868788E3
4.442212012175967E3
4.4484951974831465E3
4.454778382790327E3
4.461061568097506E3
4.467344753404685E3
4.473627938711865E3
4.479911124019045E3
4.486194309326224E3
4.492477494633404E3
4.498760679940584E3
4.505043865247763E3
4.511327050554943E3
4.517610235862122E3
4.523893421169302E3
4.5301766064764815E3
4.536459791783661E3
4.54274297709084E3
4.5490261623980205E3
4.5553093477052E3
4.561592533012379E3
4.567875718319559E3
4.574158903626739E3
4.580442088933918E3
4.586725274241097E3
4.593008459548278E3
4.599291644855457E3
4.605574830162636E3
4.611858015469816E3
4.618141200776996E3
4.624424386084175E3
4.630707571391355E3
4.636990756698535E3
4.643273942005714E3
4.6495571273128935E3
4.655840312620073E3
4.662123497927253E3
4.668406683234432E3
4.674689868541612E3
4.680973053848791E3
4.687256239155971E3
4.693539424463151E3
4.69982260977033E3
4.70610579507751E3
4.71238898038469E3
4.718672165691869E3
4.724955350999048E3
4.7312385363062285E3
4.737521721613408E3
4.743804906920587E3
4.7500880922277665E3
4.756371277534947E3
4.762654462842126E3
4.7689376481493055E3
4.775220833456486E3
4.781504018763665E3
4.787787204070844E3
4.794070389378024E3
4.800353574685204E3
4.806636759992383E3
4.812919945299563E3
4.819203130606742E3
4.825486315913922E3
4.831769501221102E3
4.838052686528281E3
4.844335871835461E3
4.8506190571426405E3
4.85690224244982E3
4.863185427756999E3
4.869468613064179E3
4.875751798371359E3
4.882034983678538E3
4.888318168985717E3
4.894601354292898E3
4.900884539600077E3
4.907167724907256E3
4.913450910214437E3
4.919734095521616E3
4.926017280828795E3
4.932300466135975E3
4.938583651443155E3
4.944866836750334E3
4.9511500220575135E3
4.957433207364693E3
4.963716392671873E3
4.969999577979052E3
4.976282763286232E3
4.982565948593412E3
4.988849133900591E3
4.995132319207771E3
5.00141550451495E3
5.00769868982213E3
5.01398187512931E3
5.020265060436489E3
5.026548245743668E3
5.032831431050849E3
5.039114616358028E3
5.045397801665207E3
5.0516809869723875E3
5.057964172279567E3
5.064247357586746E3
5.0705305428939255E3
5.076813728201106E3
5.083096913508285E3
5.089380098815464E3
5.095663284122644E3
5.101946469429824E3
5.108229654737003E3
5.114512840044183E3
5.120796025351363E3
5.127079210658542E3
5.133362395965722E3
5.139645581272901E3
5.145928766580081E3
5.1522119518872605E3
5.15849513719444E3
5.164778322501619E3
5.171061507808799E3
5.177344693115979E3
5.183627878423158E3
5.189911063730338E3
5.196194249037518E3
5.202477434344697E3
5.208760619651876E3
5.215043804959057E3
5.221326990266236E3
5.227610175573415E3
5.2338933608805955E3
5.240176546187775E3
5.246459731494954E3
5.252742916802134E3
5.259026102109314E3
5.265309287416493E3
5.2715924727236725E3
5.277875658030852E3
5.284158843338032E3
5.290442028645211E3
5.296725213952391E3
5.303008399259571E3
5.30929158456675E3
5.31557476987393E3
5.321857955181109E3
5.328141140488289E3
5.334424325795469E3
5.340707511102648E3
5.346990696409827E3
5.3532738817170075E3
5.359557067024187E3
5.365840252331366E3
5.372123437638546E3
5.378406622945726E3
5.384689808252905E3
5.390972993560084E3
5.397256178867265E3
5.403539364174444E3
5.409822549481623E3
5.416105734788803E3
5.422388920095983E3
5.428672105403162E3
5.434955290710342E3
5.441238476017522E3
5.447521661324701E3
5.4538048466318805E3
5.46008803193906E3
5.46637121724624E3
5.4726544025534195E3
5.478937587860599E3
5.485220773167778E3
5.491503958474958E3
5.497787143782138E3
5.504070329089317E3
5.510353514396497E3
5.516636699703677E3
5.522919885010856E3
5.529203070318035E3
5.535486255625216E3
5.541769440932395E3
5.548052626239574E3
5.554335811546754E3
5.560618996853934E3
5.566902182161113E3
5.5731853674682925E3
5.579468552775473E3
5.585751738082652E3
5.592034923389831E3
5.598318108697011E3
5.604601294004191E3
5.61088447931137E3
5.61716766461855E3
5.623450849925729E3
5.629734035232909E3
5.636017220540089E3
5.642300405847268E3
5.648583591154448E3
5.6548667764616275E3
5.661149961768807E3
5.667433147075986E3
5.673716332383166E3
5.679999517690346E3
5.686282702997525E3
5.6925658883047045E3
5.698849073611885E3
5.705132258919064E3
5.711415444226243E3
5.717698629533424E3
5.723981814840603E3
5.730265000147782E3
5.736548185454962E3
5.742831370762142E3
5.749114556069321E3
5.755397741376501E3
5.76168092668368E3
5.76796411199086E3
5.7742472972980395E3
5.780530482605219E3
5.786813667912399E3
5.793096853219578E3
5.799380038526758E3
5.805663223833937E3
5.811946409141117E3
5.818229594448297E3
5.824512779755476E3
5.830795965062655E3
5.837079150369836E3
5.843362335677015E3
5.849645520984194E3
5.8559287062913745E3
5.862211891598554E3
5.868495076905733E3
5.8747782622129125E3
5.881061447520093E3
5.887344632827272E3
5.893627818134451E3
5.899911003441631E3
5.906194188748811E3
5.91247737405599E3
5.91876055936317E3
5.92504374467035E3
5.931326929977529E3
5.937610115284709E3
5.943893300591888E3
5.950176485899068E3
5.956459671206248E3
5.962742856513427E3
5.969026041820606E3
5.9753092271277865E3
5.981592412434966E3
5.987875597742145E3
5.994158783049325E3
6.000441968356505E3
6.006725153663684E3
6.013008338970863E3
6.019291524278044E3
6.025574709585223E3
6.031857894892402E3
6.038141080199582E3
6.044424265506762E3
6.050707450813941E3
6.056990636121121E3
6.063273821428301E3
6.06955700673548E3
6.0758401920426595E3
6.082123377349839E3
6.088406562657019E3
6.094689747964198E3
6.100972933271378E3
6.107256118578558E3
6.113539303885737E3
6.119822489192917E3
6.126105674500096E3
6.132388859807276E3
6.138672045114456E3
6.144955230421635E3
6.151238415728814E3
6.1575216010359945E3
6.163804786343174E3
6.170087971650353E3
6.1763711569575335E3
6.182654342264713E3
6.188937527571892E3
6.1952207128790715E3
6.201503898186252E3
6.207787083493431E3
6.21407026880061E3
6.22035345410779E3
6.22663663941497E3
6.232919824722149E3
6.239203010029329E3
6.245486195336509E3
6.251769380643688E3
6.258052565950868E3
6.264335751258047E3
6.270618936565227E3
6.2769021218724065E3
6.283185307179586E3
