%%MatrixMarket matrix array complex general
%
1000 1
7.883549078324212E-1 -7.885966990008207E-1
9.652970363009048E-1 -9.657423901979836E-1
1.1144495511244767 -1.1151355976305657
1.2458322850338548 -1.246794111740176
1.3645884649471658 -1.3658679562104856
1.473780855840015 -1.4753747923305265
1.5754049839085624 -1.5773414681382798
1.6708011847122004 -1.6731139393001773
1.7610247926909328 -1.7637333360841492
1.8468180738607856 -1.8499440860485175
1.9287501630154371 -1.9323530501934247
2.0073661521856807 -2.0113821904995084
2.0829721774922456 -2.087472032247665
2.1558965296020456 -2.160930772944075
2.226385827712 -2.232006693413498
2.2947656955320364 -2.300754062986468
2.3611037397969845 -2.367638861058888
2.425608851198095 -2.4326962774839895
2.4884219026836347 -2.496071037264342
2.5496657832878635 -2.557888374066878
2.609484891106733 -2.6183068693317497
2.6678217113790677 -2.6774130532238556
2.7252504656208916 -2.735020877036389
2.781050599987877 -2.7917570888266847
2.8358902044691714 -2.8472552986835984
2.8896756093661993 -2.901753562298352
2.942468542941261 -2.9551945252406497
2.9943494540929643 -3.007725499437878
3.0449023019860473 -3.059409384190822
3.0952903669276566 -3.110153141165982
3.1449853145797237 -3.160431802048672
3.1931940978276443 -3.209416601438398
3.240951252368417 -3.2579282975517043
3.2879912999136316 -3.3057502538331165
3.3343323501495807 -3.3529352988168815
3.3799911124405626 -3.399555911163805
3.4250014503127018 -3.4456707702392615
3.469405210949781 -3.4913098615313514
3.5136266922527453 -3.5353914558816517
3.5569759187127694 -3.579613477825126
3.5996287309291355 -3.623485598032355
3.6428191271595702 -3.666057176600089
3.683972842203834 -3.7090351724508777
3.7254115904445784 -3.7512110931978344
3.7662249431911685 -3.7929764473160015
3.8064914307499707 -3.8346006860107584
3.846457931204414 -3.8761142118828817
3.8861629832086333 -3.915638964306501
3.9253173484929866 -3.9556990915256014
3.9641685517370493 -3.9953855486998893
4.001490381332423 -4.034772081163679
4.040471582204705 -4.073563203822504
4.0781023332542885 -4.11215550134606
4.115368140217738 -4.150372556662468
4.152334786060858 -4.188238389826051
4.188620434852748 -4.225608175275487
4.225090105227139 -4.262906734521119
4.261054058656372 -4.299818841659712
4.296705114163894 -4.336502651447195
4.332799299186695 -4.373577750889873
4.367131400294574 -4.408861015096144
4.4031884761303735 -4.444886928560687
4.435149221785758 -4.4793135999277585
4.468765929276547 -4.514214143872095
4.503358218371536 -4.549525826565895
4.536491341480825 -4.58513621006136
4.571195790636314 -4.619393291070233
4.6042271114695295 -4.653458862821313
4.636977271687422 -4.687968754374461
4.670083263394443 -4.721857153742033
4.702351718679223 -4.755098592670337
4.735159193398118 -4.788140739453645
4.767547337600485 -4.820964069016991
4.79891997218744 -4.854224213111071
4.830398111932743 -4.885284770335289
4.859722892142685 -4.918330173164244
4.889827178363747 -4.949963423735363
4.923345080652933 -4.981148128727589
4.9537088265791605 -5.015128520944855
4.984402046760162 -5.046660710070343
5.01468392418435 -5.078213952744163
5.04474703494036 -5.112540246011191
5.074510018534469 -5.141406766608244
5.104398953899085 -5.17135193229929
5.133370377632367 -5.1997931345233
5.161696906075524 -5.230940297510567
5.192355290421415 -5.2630461023118995
5.221313314662959 -5.293313257503643
5.250090641799242 -5.3233466407545755
5.279040205605034 -5.352225345579392
5.306627405095078 -5.382515887664421
5.3348532946558045 -5.412044083965623
5.363049737551819 -5.441507082361498
5.39121951937686 -5.470916763646669
5.419280448203779 -5.500207212035446
5.448413399040369 -5.527720521072499
5.474536581445544 -5.55790514722506
5.501778238525557 -5.586623740266242
5.528709562724312 -5.615147766141114
5.557172530624836 -5.6436976383603445
5.584127502918841 -5.674027932090851
5.610706657621386 -5.7020895773848785
5.636064472596736 -5.726513068538183
5.665746672727791 -5.756795638220878
5.696345017022844 -5.783180431584556
5.721372822900043 -5.813160775256085
5.746830726267619 -5.841384589325511
5.772619109124415 -5.8683369432917845
5.798277284815478 -5.894916577265503
5.824646984933435 -5.92232625648604
5.850815013726304 -5.949822461268835
5.876611514135881 -5.97741221954001
5.902241817003456 -6.005043502430715
5.928306506277435 -6.032354328583876
5.955478562861601 -6.058680066527016
5.973639820491283 -6.082315534359749
6.005894141568272 -6.108783023357804
6.022568684453866 -6.1357276407278265
6.0521583872855516 -6.159687252753063
6.073028362721928 -6.187151220189814
6.097578785166537 -6.213178325595204
6.122046584844515 -6.2390865012934995
6.13830807618188 -6.262796683634436
6.167056996933736 -6.287854920547584
6.192924221113484 -6.315807057800312
6.217176588475368 -6.340478626342544
6.238683841690618 -6.367680839791668
6.262766334816625 -6.394655721189056
6.287362955321478 -6.419851999539988
6.308974054174775 -6.445842050982389
6.330122819304807 -6.471803953408075
6.361195638627694 -6.493072344740721
6.384542347065752 -6.518021810564689
6.407822255305883 -6.542831439624964
6.421149867890852 -6.57249375791611
6.451518721667701 -6.593596021153919
6.4742026528419805 -6.613632993636222
6.495539335506076 -6.642783764417283
6.517133533825017 -6.6646228594627175
6.546284917838041 -6.689592750735647
6.565101002157684 -6.713054953847166
6.591006917466459 -6.73758997538685
6.6181572399433275 -6.7653113529848525
6.636670640127021 -6.786084840524531
6.660190843303652 -6.8090117422049135
6.677019466307397 -6.835132517827372
6.702641147956388 -6.857124485122106
6.7245239684529015 -6.880298991069345
6.74669439001118 -6.9042786927525235
6.768579285637099 -6.927830923225265
6.790451652278807 -6.951214361221874
6.805117703665457 -6.973008724745159
6.831339613507005 -6.995342022265967
6.853648964402937 -7.019312748517224
6.8752008048172435 -7.045079459479394
6.898518305554625 -7.067695292452511
6.920244759887594 -7.090475239979918
6.9407731215087605 -7.110898542979678
6.9621951323644815 -7.137093936729447
6.9838121943159 -7.156967073748148
7.006188952374557 -7.181826564799569
7.02938644242777 -7.205114084680119
7.042353049663174 -7.220707656826237
7.067552657471563 -7.249499975853692
7.087444407866257 -7.271554019897023
7.106791028800091 -7.293990026527074
7.12878964060873 -7.314824890482664
7.150390056056709 -7.339651607701206
7.170856321245477 -7.361766933321192
7.191670910770068 -7.383452732047558
7.196490414780439 -7.395039374599781
7.231658234961165 -7.428517000578828
7.252054503856045 -7.45016536361706
7.2728926086781485 -7.471512744449689
7.276430931950166 -7.501693303672704
7.297489283655536 -7.523072121842214
7.317578522106436 -7.544990045730064
7.337748380300092 -7.566935239433171
7.358609948017979 -7.588580557026845
7.380312229921117 -7.609804690234107
7.400847335538686 -7.63128607581305
7.432872642162021 -7.6461329585977635
7.438676465284516 -7.668577959313206
7.469497958150839 -7.6883001743901085
7.484040684542014 -7.7105638406057215
7.507154672611661 -7.731552945333645
7.529873179296917 -7.7514669979047435
7.54996498002564 -7.772874433690356
7.567852433203382 -7.792994031421612
7.589050647824323 -7.814094138583688
7.614963538618855 -7.831324085352962
7.640219920499271 -7.8697749651076405
7.6325903372167545 -7.8874767491130875
7.660035131326835 -7.8883525762866125
7.676713763175719 -7.899344330730268
7.698962342133357 -7.942464636922631
7.720654746112618 -7.96285110478872
7.739399132439584 -7.983569532643607
7.759475852837708 -8.003268424955685
7.778406798977529 -8.023842438797997
7.797429490039231 -8.044400368955158
7.816391977654087 -8.064922151728318
7.835241117217887 -8.085386302017056
7.853947306577865 -8.105772781740258
7.872520888339341 -8.12608172841366
7.891075014226412 -8.146628079348405
7.909558993533508 -8.167099581657627
7.927910663394519 -8.187442965507119
7.947205483120143 -8.207630265297256
7.964287514606393 -8.227820818533266
7.970946312032417 -8.249948461198018
8.000061981790042 -8.267042699094265
8.019685579419795 -8.287448573537523
8.036706031318392 -8.30783239379355
8.05247676332389 -8.32848334036643
8.067315508127939 -8.34947665387944
8.081304653200432 -8.370976539074148
8.113092162197418 -8.385770477345627
8.129330319126776 -8.406343878273605
8.146723446072704 -8.426350496097342
8.164936694557255 -8.44584884654593
8.18330378075378 -8.465207579889618
8.201823381184372 -8.484424561475654
8.218901438046277 -8.504168363345094
8.215768992372613 -8.533324590282064
8.235217546087933 -8.551833206938277
8.254925242140594 -8.57021386587218
8.27488567829864 -8.588475488448392
8.295081430856028 -8.606630583402703
8.315393467178582 -8.624731538652542
8.33558991874394 -8.642863400680447
8.355311670591062 -8.661132813738941
8.3648219219516 -8.681955630542957
8.388077188844356 -8.69878246533857
8.405057799496017 -8.717742094811957
8.422431792220161 -8.736665820749343
8.44012459869753 -8.755614797222762
8.4542325908473 -8.778041544020887
8.470409223904895 -8.797524044017106
8.486537676950794 -8.816914156658477
8.502655534276037 -8.836190217828227
8.51881238148892 -8.855329886566793
8.535057928488891 -8.874311325492972
8.551448809536408 -8.893116701253927
8.568042810861858 -8.91172428124848
8.583451317869965 -8.93086391286919
8.598242413872764 -8.950164414601547
8.612912713640059 -8.969355098829693
8.627663860380611 -8.98835295093228
8.653936334025914 -8.998270854364963
8.669021181220073 -9.019592974078494
8.669178765839273 -9.04228459519968
8.708191190966197 -9.058289368893071
8.722938876194656 -9.078540719375965
8.739087677181612 -9.09684712295671
8.724602080199091 -9.118649166440713
8.738023805329085 -9.139126818623666
8.759390115534746 -9.157410832416556
8.802405470109967 -9.17228151100696
8.819812224207007 -9.190279007532451
8.837714956951677 -9.20737235784617
8.85528225389143 -9.224189583815253
8.845834021683626 -9.253080106273336
8.856015348207436 -9.272069208813233
8.868502938766905 -9.290062229298641
8.883638742751964 -9.307202817336735
8.901029547296446 -9.323759594383098
8.951252062820766 -9.333286691884119
8.966701510533508 -9.351915620857216
8.977438935211524 -9.369915722722318
8.995291438667985 -9.38580795812778
9.008545963947475 -9.405414661478162
9.023511258188911 -9.424149918957912
9.040692330005136 -9.441609667485634
9.05979299250261 -9.45779312120035
9.066198881869159 -9.481605712241064
9.092390892404353 -9.495772347550131
9.10659071813487 -9.511790018108826
9.108548258596613 -9.535683148720945
9.128213031875129 -9.550378235727601
9.156104737538708 -9.564027166625328
9.169834696329046 -9.581390625981813
9.182660284283072 -9.600175147265638
9.201707020889224 -9.618470658325458
9.1757977219115 -9.655778010987238
9.21469309238681 -9.645827643395533
9.25470709617175 -9.673572503670638
9.254985926369738 -9.684961541136941
9.256903244995534 -9.689184321897741
9.280948116710247 -9.723176024595066
9.305207028938451 -9.737990848788387
9.322267940861176 -9.75791475228984
9.320644665718946 -9.782490820456841
9.349561066055044 -9.791918019602656
9.370371045217224 -9.808607602903056
9.370032252340845 -9.829984652774552
9.399722604867371 -9.842691299782258
9.41130507621039 -9.860491783047069
9.39584442149829 -9.88989075384643
9.403642469247883 -9.909022545113848
9.45009640248773 -9.913867489372514
9.46562466861057 -9.930921482623674
9.481587883903307 -9.947792486589124
9.497745686057408 -9.964576884325332
9.519578140216243 -9.981207515527903
9.517228006887406 -9.989545071741095
9.542132996337592 -1.001522839970858E1
9.567397174356026 -1.003026673862853E1
9.523154743195143 -1.0091297123085841E1
9.587704933087092 -1.0041514136252527E1
9.606850810158106 -1.008357708095858E1
9.625038157295943 -1.010334317655183E1
9.609664182444178 -1.0143753160355013E1
9.605795316047924 -1.0173284195292055E1
9.663577736141201 -1.0149965903362714E1
9.627274693251866 -1.0186323413431788E1
9.67800379654651 -1.0188498982544E1
9.696081187086783 -1.020390073124022E1
9.71170268457106 -1.0209209871363292E1
9.69855673336772 -1.021455006582605E1
9.754352885386746 -1.0249643135142241E1
9.746695766908275 -1.0245637077599461E1
9.777377944282012 -1.0282774107293877E1
9.786037427948791 -1.0304717866850583E1
9.788048682015026 -1.032400623455402E1
9.807214972468035 -1.0335708707745402E1
9.831488359510269 -1.0352170523307567E1
9.84402999407185 -1.0369442845939085E1
9.850267309781636 -1.038792575961792E1
9.84926517710535 -1.0401266582009542E1
9.860510901190109 -1.0417790296194292E1
9.873038284520673 -1.0433645029745385E1
9.892681519320343 -1.0450660427231327E1
9.934227848180416 -1.0470929519124248E1
9.944506971973947 -1.0489710890661826E1
9.956366954645821 -1.0506830782931303E1
9.970499602909634 -1.0522297145087263E1
9.992915569596121 -1.053316809602261E1
1.0006286579968757E1 -1.0549134495219317E1
9.988257109267142 -1.0578852373178464E1
1.0004830119676697E1 -1.0594553373620743E1
1.0021605278709933E1 -1.0610104593784268E1
1.0038463439195127E1 -1.0625544464413432E1
1.005533980891077E1 -1.0640887544340758E1
1.0072179633375718E1 -1.0656152353750112E1
1.0088911678510708E1 -1.0671362426563649E1
1.010547040450301E1 -1.0686542572524896E1
1.0121715361124156E1 -1.0701742380039239E1
1.0124774412378818E1 -1.0722139726692728E1
1.0118083430876034E1 -1.0742066387850194E1
1.010554850108759E1 -1.0761589440687457E1
1.0175414380256463E1 -1.0765253295827518E1
1.0195586375551036E1 -1.077611970809932E1
1.0202018621091524E1 -1.0794959706687022E1
1.0205434206607727E1 -1.0814345505483413E1
1.0206493478705799E1 -1.0833551523913618E1
1.0202671556808724E1 -1.0796634658400118E1
1.0266770456935767E1 -1.0852885901708142E1
1.0278869259827351E1 -1.0869089032624931E1
1.0271138780429084E1 -1.088946741960977E1
1.0305084144710678E1 -1.0903754176866615E1
1.0314367721298298E1 -1.0921006677478708E1
1.0314464759645329E1 -1.0941547963779978E1
1.0344042969782384E1 -1.0949030765141849E1
1.0288787357402525E1 -1.0919222375763274E1
1.0456463774359914E1 -1.0970499257310548E1
1.0406807298728294E1 -1.1014528982075124E1
1.0400331103077171E1 -1.1017378540696038E1
1.040865965328329E1 -1.1028044453845645E1
1.0428667890025055E1 -1.1034595838273207E1
1.0408118994319711E1 -1.1087119885075756E1
1.043478678130072E1 -1.1080964606780132E1
1.0399037904134891E1 -1.1163044767834052E1
1.0444778109635639E1 -1.1131624090496143E1
1.0467757087517215E1 -1.1143060156951394E1
1.0483989434875436E1 -1.1149521967046793E1
1.049505810472711E1 -1.1168483333453185E1
1.0512298542970427E1 -1.118354513659337E1
1.0533010780736534E1 -1.119581204742468E1
1.0532247975656777E1 -1.1217029774848072E1
1.0492831571690887E1 -1.1275894765677426E1
1.0518508402944985E1 -1.1275116221713525E1
1.0536377317600595E1 -1.1285936805542644E1
1.0554397927161958E1 -1.1296768185278019E1
1.0572359732579287E1 -1.130783183854299E1
1.058940484920638E1 -1.1319864898073687E1
1.0596720059177526E1 -1.1340282865794947E1
1.0605516766458608E1 -1.1359602449565003E1
1.0615662073372004E1 -1.1377750079780345E1
1.0627003594418007E1 -1.139474487407037E1
1.0639477922434835E1 -1.141058991223441E1
1.0643635094436654E1 -1.1435236046264581E1
1.0636482967851304E1 -1.147544571062044E1
1.0737639980930298E1 -1.1417114452654223E1
1.0748043973768272E1 -1.14330641645992E1
1.0757985585701611E1 -1.144925487813886E1
1.0767411662969398E1 -1.1465750099518575E1
1.0776344882276188E1 -1.1482593400983214E1
1.0784757551020844E1 -1.1499852829309406E1
1.0792706297829511E1 -1.1517558822984354E1
1.0800248928696359E1 -1.15357349648056E1
1.0807513202656255E1 -1.155434900911386E1
1.0814544703067325E1 -1.1573408034167807E1
1.0778032911817755E1 -1.1625409249163331E1
1.0798586750407132E1 -1.1633277534028277E1
1.0820888580332479E1 -1.1639336823073359E1
1.0893244795058973E1 -1.1622163590536015E1
1.0902747571700129E1 -1.1639000656531888E1
1.0912098035358243E1 -1.165595452979919E1
1.0921346617051288E1 -1.167299305740215E1
1.093056190846685E1 -1.169007249943539E1
1.0939822880531974E1 -1.1707139735340986E1
1.0949217327177255E1 -1.1724133835122284E1
1.0958768418084887E1 -1.1741028434114959E1
1.0968504436920416E1 -1.1757796718649608E1
1.0978468605981325E1 -1.177440694802108E1
1.0988638738952615E1 -1.1790875751426862E1
1.1015992964215178E1 -1.18057236918081E1
1.1021797342094398E1 -1.1826761653964967E1
1.1028142285158937E1 -1.1847525670935505E1
1.1035157250605065E1 -1.1867835537646828E1
1.104285713312309E1 -1.188762273764756E1
1.1051199098017308E1 -1.1906885245566734E1
1.1060209074567524E1 -1.1925555597354384E1
1.1069859730610016E1 -1.1943635239827538E1
1.1129759498244475E1 -1.1905190476592827E1
1.1143991434379604E1 -1.1918940136440876E1
1.1157723261510872E1 -1.1932631200306695E1
1.1170730239883436E1 -1.1946915077250077E1
1.1182739495702132E1 -1.1961798764409453E1
1.1143552406164844E1 -1.1996651157624592E1
1.1141940810000015E1 -1.203367356788597E1
1.1142076366549695E1 -1.2072137874464731E1
1.1144385789569224E1 -1.2110347125720148E1
1.1148638435543253E1 -1.2147853598320818E1
1.1251413340596068E1 -1.2053240845614114E1
1.1261432511819326E1 -1.2069005456400147E1
1.127164557214676E1 -1.2084757821937597E1
1.1225910472292647E1 -1.2171506350211752E1
1.126760544879901E1 -1.2102930281609142E1
1.1301565254134408E1 -1.2089649603178986E1
1.1313990104253705E1 -1.2105222096485042E1
1.1328282402958708E1 -1.2121057221683184E1
1.1343058538735837E1 -1.2138372999364437E1
1.1355895520186666E1 -1.2158671967691564E1
1.1315234265306445E1 -1.2317743894204183E1
1.1325162645389828E1 -1.2332581809458631E1
1.1338068997426383E1 -1.2328934879223093E1
1.1415625483553418E1 -1.2238083349546393E1
1.1395957935900787E1 -1.2342264671729675E1
1.1420171986087729E1 -1.2292738294870292E1
1.145377278607102E1 -1.227416233228415E1
1.1461575189878303E1 -1.2294592587483644E1
1.1542700623316504E1 -1.2383867553274312E1
1.1500288813296029E1 -1.2370907492701022E1
1.1514504661646374E1 -1.2361699312469463E1
1.1524192903213226E1 -1.240306537353038E1
1.1569982325774765E1 -1.2417421238949029E1
1.1600033528828856E1 -1.2503550115074564E1
1.1546029555638397E1 -1.2395651824735003E1
1.1544475473789866E1 -1.24382002609968E1
1.1547994522275223E1 -1.2494548110968177E1
1.15578128457164E1 -1.2555598073039778E1
1.158973823323135E1 -1.2455497779315333E1
1.1603132437075043E1 -1.246840597737613E1
1.1549026555085874E1 -1.257406952422717E1
1.1553661929431907E1 -1.2628253759649478E1
1.1631245651408582E1 -1.2516599100838016E1
1.164355416476808E1 -1.2529874613945319E1
1.165667943087262E1 -1.2542834811452867E1
1.161393277727875E1 -1.2609177575879105E1
1.167102875285913E1 -1.2581389202365676E1
1.16689632265666E1 -1.2608431810502177E1
1.1667775347961927E1 -1.2636097672699167E1
1.1669330150904425E1 -1.2661526579453824E1
1.1674942380186875E1 -1.2681979554564817E1
1.1685072533668713E1 -1.2695936488727105E1
1.1700021444768437E1 -1.2702826533895239E1
1.173664768405632E1 -1.269011094832202E1
1.1749526177126052E1 -1.2702865241448011E1
1.1762972649439892E1 -1.271525210283483E1
1.1776885338321641E1 -1.272735880630793E1
1.1781926877214486E1 -1.2745769300825964E1
1.1786040725663439E1 -1.2764773408844565E1
1.1793611424021902E1 -1.2780821173974047E1
1.1804620511492699E1 -1.2793715622584317E1
1.1829870140760914E1 -1.2796733002841213E1
1.1843122077236487E1 -1.2809282398854036E1
1.186268124828565E1 -1.2821315022066264E1
1.1873927517331087E1 -1.2835398656414847E1
1.1885183783063194E1 -1.2849461337074862E1
1.1896442609839863E1 -1.286350818610384E1
1.19077151749923E1 -1.2877531612865805E1
1.1918999533552059E1 -1.2891532229240202E1
1.1930278903220835E1 -1.290551789840932E1
1.1941580885866136E1 -1.2919476905232969E1
1.1952890457019562E1 -1.2933414317094757E1
1.1964217222927134E1 -1.2947325745660995E1
1.1975544329482455E1 -1.2961216815116758E1
1.1986890114320639E1 -1.297508029505429E1
1.1998247410461135E1 -1.298891797818729E1
1.2009622724276792E1 -1.3002725951209452E1
1.2021003053277386E1 -1.3016509166145463E1
1.2032404721797912E1 -1.3030258720211286E1
1.2043815163674244E1 -1.3043980194320433E1
1.205524197767515E1 -1.3057667565820841E1
1.206667399761463E1 -1.3071326409101166E1
1.2078122687404305E1 -1.3084948673302803E1
1.2089582878145919E1 -1.3098535820489854E1
1.2101050587454534E1 -1.3112088646402396E1
1.2112524659782894E1 -1.312560576968153E1
1.2124006696742164E1 -1.3139085230987808E1
1.1982908428095138E1 -1.3161606406725568E1
1.2001387558753304E1 -1.317651259388653E1
1.2020219888333173E1 -1.3191303267947813E1
1.2039103993021435E1 -1.3205929615428014E1
1.2143246814958934E1 -1.3225000924155255E1
1.2158344407267977E1 -1.3233895155479544E1
1.2175382569994417E1 -1.3241912312797524E1
1.2156392399168569E1 -1.329103117976427E1
1.2169211795605827E1 -1.330073849833958E1
1.2178188229686429E1 -1.3317686047879082E1
1.2191907934102494E1 -1.3330111922612444E1
1.2206769559018126E1 -1.3341831270089829E1
1.2223050375845773E1 -1.3340394059664332E1
1.2217278964117014E1 -1.3382532201537582E1
1.2222959014796382E1 -1.3411628804542174E1
1.2245719092265862E1 -1.3415402939727652E1
1.2264020895230468E1 -1.3401180184728561E1
1.2265585374222736E1 -1.34395633763323E1
1.231883402200399E1 -1.3402982348504556E1
1.232918537178727E1 -1.3421429203787724E1
1.2359340600491603E1 -1.3413565664822997E1
1.2418496361334313E1 -1.3555329547348313E1
1.2408452461837534E1 -1.3468143363237102E1
1.2408585518254597E1 -1.345673857841711E1
1.2332879412182109E1 -1.3406594876827471E1
1.22376160271663E1 -1.3355883024427854E1
1.2417707346249946E1 -1.3495197827324779E1
1.2416619153073926E1 -1.3515584412278349E1
1.2346337180735794E1 -1.351885425664715E1
1.2347041487207239E1 -1.3547680576453365E1
1.2377183376266462E1 -1.355744829296314E1
1.2419726756006844E1 -1.3578968525597741E1
1.241142709264125E1 -1.359513989668375E1
1.2421478737079635E1 -1.360707270929092E1
1.2443849887130597E1 -1.3616549250846605E1
1.2468775706785168E1 -1.362923959110897E1
1.2470118797830402E1 -1.3641469965511183E1
1.2475975495814678E1 -1.3653254470513774E1
1.2487588847768773E1 -1.3665925321160273E1
1.250186737724376E1 -1.3680081310651898E1
1.2513909574161469E1 -1.3695055761822022E1
1.2563576448602355E1 -1.3713270442496942E1
1.2571709746386558E1 -1.372797957438599E1
1.2580487436088369E1 -1.3742254834907522E1
1.2589987548146045E1 -1.3756120665434162E1
1.2600178253156473E1 -1.3769636288127355E1
1.2611012539245614E1 -1.3782854497397702E1
1.2535047909551638E1 -1.3793986630012856E1
1.2532887649356075E1 -1.3805543455480944E1
1.2643743669445739E1 -1.3820752013026777E1
1.2657089649820671E1 -1.3833218207118907E1
1.2670293878915954E1 -1.3845432011614387E1
1.2515706289307698E1 -1.3863209099773215E1
1.2559936615663268E1 -1.3882313484640134E1
1.2601877809391283E1 -1.38982421130003E1
1.2640679039219075E1 -1.3911251514336062E1
1.2673788625498904E1 -1.3922236853949592E1
1.2686672203620546E1 -1.3935334798389686E1
1.2692105781922905E1 -1.3948987544681799E1
1.2697639544464854E1 -1.3962547776186259E1
1.2703835950180249E1 -1.3975935765624923E1
1.2710151333799804E1 -1.3989266667471377E1
1.271674151445925E1 -1.4002525727739505E1
1.2723452376412329E1 -1.4015727928660004E1
1.273018064695492E1 -1.4028887203073582E1
1.2732536092595902E1 -1.4042284802807602E1
1.2733686315183727E1 -1.4055372830208176E1
1.2734937816116616E1 -1.4068112602203586E1
1.2760758748908449E1 -1.4084792624509756E1
1.2796652692784507E1 -1.4090270931391755E1
1.280177700414937E1 -1.4105298925228755E1
1.280938254019255E1 -1.411996474937598E1
1.2819258134354895E1 -1.4134228553372699E1
1.283107667733085E1 -1.414804761115046E1
1.2844401530354205E1 -1.4161422793847729E1
1.2858628600288753E1 -1.4174381435553823E1
1.2753301749721132E1 -1.4150153419886351E1
1.2766189675666109E1 -1.4164361653993296E1
1.2775985319064528E1 -1.417757028882017E1
1.2781689737856677E1 -1.4189534010515418E1
1.2795075285775837E1 -1.4203685609058601E1
1.2817040838380448E1 -1.4220036047654121E1
1.2854255833959028E1 -1.4238926578360083E1
1.2885980350513323E1 -1.4254281749222258E1
1.2962366347859016E1 -1.4290866436783142E1
1.2973900582388836E1 -1.430347269833428E1
1.2991918705577135E1 -1.4314454944840254E1
1.3010461614270357E1 -1.432617167298102E1
1.2954141436734911E1 -1.4344074021764133E1
1.3002714349871702E1 -1.4355403297343402E1
1.3056432665193777E1 -1.4418106533257204E1
1.2999194837542193E1 -1.4447451919125024E1
1.304116778224387E1 -1.4390740036579873E1
1.3060102075643437E1 -1.4422783082007733E1
1.3048894420793285E1 -1.4447441404569135E1
1.310206294227357E1 -1.4417333181347198E1
1.3090921539384265E1 -1.4453450003386429E1
1.308990102464409E1 -1.4475692791290873E1
1.306691714205181E1 -1.4572611371037299E1
1.3075043099252582E1 -1.4587619169492967E1
1.3101409374299207E1 -1.4540400667680466E1
1.308452944135563E1 -1.4639579818084247E1
1.312719468069439E1 -1.4549141987111623E1
1.3184704603647484E1 -1.4523215754983518E1
1.3159933884050648E1 -1.4596834113938169E1
1.3215821884785786E1 -1.4536825942243345E1
1.3272730691452015E1 -1.4599479449425337E1
1.3224409366450184E1 -1.4521804414791719E1
1.3244469455142328E1 -1.4574459089006178E1
1.3185451685416108E1 -1.459378589636587E1
1.3068460156901613E1 -1.4556859192306412E1
1.3171976520648895E1 -1.4603013707026562E1
1.3094682751953986E1 -1.4620760277646612E1
1.3149244672705489E1 -1.4635908247613921E1
1.311900072944185E1 -1.4640355261950475E1
1.328594341889142E1 -1.4682263125612343E1
1.3278077938890824E1 -1.469357336513614E1
1.3295054500237233E1 -1.4709348350453872E1
1.3244385895549996E1 -1.4729590375939528E1
1.3251332293637878E1 -1.4740509160618464E1
1.3263683522127954E1 -1.475104016934554E1
1.3265852930126039E1 -1.476297230215978E1
1.3226497171673948E1 -1.4776153801685057E1
1.3223066621701918E1 -1.4786399425733633E1
1.3266056954776051E1 -1.4802043506407557E1
1.3287246789619351E1 -1.4815797562632559E1
1.3296222751203908E1 -1.4828848943260668E1
1.3299063972683596E1 -1.484167443458829E1
1.330325079475233E1 -1.4854520676969646E1
1.3308846321473059E1 -1.4867439896893021E1
1.3315874641979814E1 -1.4880475879071279E1
1.3324332387528006E1 -1.4893640609451044E1
1.3334282412598029E1 -1.4906943047687314E1
1.3345702821177412E1 -1.4920368798925256E1
1.3358576668584615E1 -1.493387663305191E1
1.3361672135367774E1 -1.4945911185819659E1
1.334745290656247E1 -1.4954640427368942E1
1.3333547356721686E1 -1.4962200094446468E1
1.3319535529973832E1 -1.4968591035881522E1
1.3523266336059482E1 -1.498807265045687E1
1.3529185749002375E1 -1.5001886481175774E1
1.3534934352158707E1 -1.5015606383791614E1
1.3540570433857102E1 -1.5029221034778082E1
1.3545942895100536E1 -1.504278832769975E1
1.3550341920509098E1 -1.505657553937629E1
1.355462101477342E1 -1.50701981523292E1
1.355875370964307E1 -1.5083670892327481E1
1.3562799683721355E1 -1.5096988503378812E1
1.3566870785822102E1 -1.5110147777633744E1
1.3570883710202107E1 -1.5123174654650406E1
1.3574878299804064E1 -1.5136069634491301E1
1.3578996089034655E1 -1.514883884553757E1
1.3583039335842166E1 -1.5161504805589722E1
1.3587196303951835E1 -1.517406795387546E1
1.3591375045269247E1 -1.5186541520193762E1
1.3595637781752433E1 -1.519893321819E1
1.3600002829144483E1 -1.5211251557453618E1
1.3604470500783995E1 -1.5223506664730452E1
1.3609012392215194E1 -1.523570171298698E1
1.3613633952444317E1 -1.5247844101166338E1
1.3594567892571515E1 -1.5260546567821855E1
1.3606372867119745E1 -1.5273207728560951E1
1.3617714244013834E1 -1.528580008699973E1
1.3628718063650261E1 -1.5298342689598389E1
1.3639386053970203E1 -1.5310839525596057E1
1.3649631098821613E1 -1.5323283626631678E1
1.3659740400772522E1 -1.5335708307748442E1
1.3669218138558449E1 -1.5348058929927301E1
1.3678417940399639E1 -1.5360376072173414E1
1.3687361011570344E1 -1.5372661799970222E1
1.3695860950534502E1 -1.5384891582447711E1
1.370406563643115E1 -1.5397079631126457E1
1.3711868493219768E1 -1.5409211714802515E1
1.3719352407703745E1 -1.542129395898605E1
1.3726509007918633E1 -1.543331884524589E1
1.373334013381917E1 -1.5445284024685776E1
1.3739790666788426E1 -1.5457175263801512E1
1.3745922016504213E1 -1.546899184685532E1
1.3751710753459987E1 -1.548072771648099E1
1.3757062041068309E1 -1.5492355652641079E1
1.3762068677781086E1 -1.5503883053008826E1
1.3766881421291087E1 -1.5515329674325516E1
1.3771234644774752E1 -1.552663740745237E1
1.3775194550793683E1 -1.5537804740479718E1
1.3778981278535975E1 -1.5548873861551284E1
1.3782334580619569E1 -1.5559772657732283E1
1.378535400038243E1 -1.5570514315099144E1
1.3788163703700324E1 -1.5581117884131325E1
1.3790334724352046E1 -1.5591458190983792E1
1.3792397372439801E1 -1.5601659670599998E1
1.3794270758856337E1 -1.5611697032851163E1
1.3802316038335926E1 -1.5626776768557658E1
1.3812921449172979E1 -1.5639335247940314E1
1.382401661181871E1 -1.5651997845291456E1
1.383504975335193E1 -1.5664639675315835E1
1.3846389177799963E1 -1.5677335058436531E1
1.3855807635029073E1 -1.5689736714364482E1
1.3864594238250781E1 -1.5702095237761505E1
1.387413306587964E1 -1.5714629304511558E1
1.388452316419816E1 -1.5727360414268315E1
1.38959850551183E1 -1.5740322065916718E1
1.3908713131120505E1 -1.5753551816914122E1
1.3922720766007002E1 -1.576700970640516E1
1.3938931351162413E1 -1.5780835190065059E1
1.3956216123068359E1 -1.5794691246526828E1
1.3976406873080643E1 -1.5808792962770685E1
1.399847059363633E1 -1.5822743719777176E1
1.4019351299923304E1 -1.5836381534155922E1
1.4036842876397358E1 -1.5849754752011643E1
1.4055544425975883E1 -1.5863040179701615E1
1.4076373115493999E1 -1.5876181315089976E1
1.40982656804016E1 -1.5888888078069495E1
1.4120769135380074E1 -1.5901133910945097E1
1.4142174255655265E1 -1.5912943203626108E1
1.4164857588585864E1 -1.5923926164202927E1
1.4189260775910242E1 -1.5933520996102908E1
1.3976940849242293E1 -1.591897814278587E1
1.4034664093720814E1 -1.5947011233147725E1
1.4037435636150754E1 -1.5954889534767826E1
1.4055885670723242E1 -1.5967150213425807E1
1.4093195375717995E1 -1.5981950193260252E1
1.404314581800942E1 -1.5982608421279362E1
1.423232782639908E1 -1.601037977926528E1
1.4328296530742442E1 -1.6143359369699553E1
1.4257920233494994E1 -1.6068098993720696E1
1.4213443110262226E1 -1.6224644726037848E1
1.4291034805340985E1 -1.6060620173027978E1
1.4220418958618598E1 -1.629263728460289E1
1.4227930985142095E1 -1.6319281892932665E1
1.4235013179090153E1 -1.6327391587330723E1
1.432207606204976E1 -1.611179391106059E1
1.4316653807697929E1 -1.6139655981669765E1
1.4314682118210458E1 -1.6166794143915375E1
1.4313200090665836E1 -1.6196414122658336E1
1.4314178596880499E1 -1.6224389510362332E1
1.4316734581837668E1 -1.6251240005116863E1
1.4320300209410602E1 -1.6277565890538675E1
1.432493674590205E1 -1.6302557710098043E1
1.4330891122683566E1 -1.632431606383113E1
1.4337009114879532E1 -1.634660295558319E1
1.434382567464975E1 -1.6366900596207724E1
1.4351100080497941E1 -1.6385571998382158E1
1.4358540567291517E1 -1.64041264422759E1
1.4366300729636121E1 -1.642131328812066E1
1.43742464228061E1 -1.6437515748421937E1
1.4382376352928693E1 -1.6452730324752437E1
1.439058366883994E1 -1.6467643261810043E1
1.43988862690859E1 -1.6481913049733787E1
1.440725515840685E1 -1.6495537072958495E1
1.4415677588014976E1 -1.6508805686279175E1
1.4424124077384056E1 -1.6522688170210277E1
1.4432576346633434E1 -1.6538118566095896E1
1.44410570551236E1 -1.6552911621806317E1
1.444961112430827E1 -1.656803967993078E1
1.4457638336892298E1 -1.6579481719972176E1
1.4465658474616832E1 -1.6590673642889595E1
1.4473697332628964E1 -1.6605680321096983E1
1.4481780297702834E1 -1.662108595629463E1
1.448988468761142E1 -1.663623022695504E1
1.4498037183781637E1 -1.665126258709917E1
1.4506182494544264E1 -1.6666444276621856E1
1.4514362379788272E1 -1.6681189975885808E1
1.452256000726614E1 -1.6695692019277793E1
1.4530765724118957E1 -1.6710361048865032E1
1.4539005134017216E1 -1.672478587773026E1
1.4547238161381065E1 -1.673886104376394E1
1.4555496539793015E1 -1.6753041124021006E1
1.4563752728018065E1 -1.6766892560556148E1
1.4572027825021344E1 -1.6780670093837955E1
1.4580298583513907E1 -1.6794331923991543E1
1.4588574017920585E1 -1.680789054265802E1
1.4596859196162102E1 -1.6821208188704883E1
1.4605136463153562E1 -1.6834559421467787E1
1.461342759434957E1 -1.684763900363799E1
1.4621707606033349E1 -1.6860678158146627E1
1.4630001279350296E1 -1.687365639500315E1
1.4638281710115992E1 -1.688644977027671E1
1.4646549827855239E1 -1.689909243980425E1
1.4654821918463933E1 -1.6911660199918046E1
1.4663109400534589E1 -1.692417757860416E1
1.4671370199990678E1 -1.6936533144237437E1
1.4679631263106447E1 -1.694888692355396E1
1.4687897778595412E1 -1.6961104682034865E1
1.4696155687895768E1 -1.697325963524812E1
1.4704404246489354E1 -1.698526554190612E1
1.4712649502847452E1 -1.6997292534893358E1
1.472089900472387E1 -1.7009185567797807E1
1.472912766177868E1 -1.7021094116311946E1
1.4737357656352875E1 -1.7032898436171592E1
1.4745587290877538E1 -1.704460446602788E1
1.4753800335508664E1 -1.7056320690394838E1
1.4762009424751465E1 -1.7067954434364044E1
1.4770227004965509E1 -1.7079583034484713E1
1.4778431872522626E1 -1.709108890488757E1
1.4786634875346115E1 -1.7102667520811305E1
1.4794818467240109E1 -1.711423971028386E1
1.4803019365424056E1 -1.7125538054957534E1
1.4811178189233095E1 -1.7137145150243658E1
1.481935713858127E1 -1.7148465502314032E1
1.482754521688726E1 -1.7159816094541437E1
1.483571371017824E1 -1.717123310253397E1
1.4843867507996785E1 -1.7182544587921292E1
1.4852027810379646E1 -1.7193958021516167E1
1.4860186393718951E1 -1.7205219989170338E1
1.486832545748991E1 -1.7216794150629767E1
1.4876628360870303E1 -1.7232751798939795E1
1.4884880486511259E1 -1.7246940239809103E1
1.4893160501749346E1 -1.7261889791293356E1
1.4901522443410059E1 -1.7277481979462767E1
1.4909817566543662E1 -1.7291625658435013E1
1.4918143067548911E1 -1.730608442747705E1
1.4926439901806427E1 -1.7320121046340006E1
1.4934675906795574E1 -1.7333300430083607E1
1.4943112111920986E1 -1.7348585543950016E1
1.4951432923873911E1 -1.7362397373158384E1
1.495964766933722E1 -1.737517699831839E1
1.4967966719219124E1 -1.7388876105339634E1
1.4976288012923087E1 -1.7402648726885165E1
1.4984388862391201E1 -1.741448666335398E1
1.4992745474574019E1 -1.742836964782251E1
1.5000925407697562E1 -1.7440602938094898E1
1.500909212643669E1 -1.7452971598027027E1
1.5017321572340995E1 -1.7465652015013458E1
1.5025481443433168E1 -1.747801239378951E1
1.5033628817859325E1 -1.7490170067615125E1
1.5041772210594754E1 -1.7502427531071564E1
1.5049705905606634E1 -1.7512777554972434E1
1.5057734856233775E1 -1.7524094246228767E1
1.5065879045940873E1 -1.7536274742290498E1
1.5073760067630097E1 -1.7546614118686353E1
1.5081849554479623E1 -1.755834895701877E1
1.5089844189181976E1 -1.7569519415369225E1
1.5097781724290684E1 -1.75801838452736E1
1.5105655479049243E1 -1.7590465628845685E1
1.5113605156664493E1 -1.760132087598176E1
1.512139970495878E1 -1.7611062870641202E1
1.5129354658780356E1 -1.7621808487319992E1
1.5137074558814543E1 -1.7630838316109347E1
1.5144900849160301E1 -1.764090399691742E1
1.51527677816441E1 -1.7651026597638257E1
1.516059251939123E1 -1.7661171484003077E1
1.516826631365E1 -1.7669638214174928E1
1.517596586643095E1 -1.767841872627934E1
1.518372307848609E1 -1.768776293166175E1
1.5191517036916093E1 -1.7697249556620637E1
1.5199201601694966E1 -1.7705823719244783E1
1.520689421702642E1 -1.771447926470975E1
1.5214550356230093E1 -1.772233063692577E1
1.5222286289806915E1 -1.773111574931232E1
1.5230042065279553E1 -1.774017510044871E1
1.5238000995268203E1 -1.7752201168461497E1
1.5245940000141008E1 -1.77641302919582E1
1.5253892484661794E1 -1.7775960519857932E1
1.5261829658969127E1 -1.7787571331553142E1
1.526976817714441E1 -1.7799572615141013E1
1.5277684451907714E1 -1.7811469349747394E1
1.5285632742132114E1 -1.7823252957121586E1
1.5293546821732235E1 -1.7835018610658334E1
1.5301463406940872E1 -1.7846699364443054E1
1.5309366247530475E1 -1.785835789339341E1
1.5317277460610443E1 -1.7870206494717845E1
1.532518101605173E1 -1.7881738632829496E1
1.5333053569920475E1 -1.7893226063426617E1
1.534096735134988E1 -1.7904918539136542E1
1.5348841744472898E1 -1.7916262514479122E1
1.535672452009513E1 -1.7927774876223026E1
1.5364594462405814E1 -1.7939153692529946E1
1.5372437665693754E1 -1.795047390344293E1
1.5380284240464183E1 -1.7961732654197025E1
1.5388125334002256E1 -1.797286204915936E1
1.5395954710070523E1 -1.7983962808819648E1
1.540377186032371E1 -1.799498687828788E1
1.541157743357065E1 -1.8005906574023797E1
1.5419380512171275E1 -1.8016739103106854E1
1.5427162797652379E1 -1.802751721919377E1
1.5434930842794396E1 -1.8038061119989724E1
1.5442696146273361E1 -1.804863094067233E1
1.5450445943396934E1 -1.805911935070784E1
1.5458186497968063E1 -1.8069466583115187E1
1.546591244655901E1 -1.8079648067288083E1
1.5473608638049138E1 -1.8089582049638956E1
1.5481302696193794E1 -1.8099591153896455E1
1.548898967564379E1 -1.8109486073855397E1
1.5496658193076973E1 -1.811920339172398E1
1.550432087249161E1 -1.812861159683968E1
1.5511963536637484E1 -1.8137986271997065E1
1.5519588174194292E1 -1.814719392227557E1
1.552722273614875E1 -1.8156472213827787E1
1.553482863745196E1 -1.8165311141950745E1
1.5542449513041557E1 -1.81742929592883E1
1.5550049628195941E1 -1.8182748686207397E1
1.5557634264464324E1 -1.819107303095235E1
1.5565230463449124E1 -1.819946177628673E1
1.5572826086916134E1 -1.8207761622688807E1
1.5580401236256428E1 -1.8215592389760687E1
1.5587993443945397E1 -1.8223557866287813E1
1.5595592209358221E1 -1.8230947226958154E1
1.5603201243083419E1 -1.82381379547724E1
1.5610947508240317E1 -1.8247023303277583E1
1.5618793702151903E1 -1.8256322304497445E1
1.5626584879175983E1 -1.826526808754028E1
1.563434495009752E1 -1.8273094451688735E1
1.5642068829359758E1 -1.8280458969200435E1
1.5649473711286104E1 -1.8285280740072757E1
1.5656945907070206E1 -1.8288487045942755E1
1.5664634733736913E1 -1.8290835225085377E1
1.567257528011737E1 -1.8294859284290258E1
1.568077589527258E1 -1.829769761382967E1
1.5689228558050962E1 -1.8300201711786737E1
1.569810170852863E1 -1.8301109645671417E1
1.570774749873266E1 -1.829953895352281E1
1.5718378184161118E1 -1.829598670716306E1
1.5729643485473254E1 -1.8292987904962132E1
1.5743684934915409E1 -1.828475879674151E1
1.5758841302654421E1 -1.827833250619497E1
1.577717650024757E1 -1.8270496179971634E1
1.5747424459817598E1 -1.8515425901380134E1
1.5757651694506503E1 -1.8531928467644214E1
1.5764498825593613E1 -1.854264338085169E1
1.5813769662092053E1 -1.8305895835159994E1
1.579162600219349E1 -1.8577838744261307E1
1.5822110995144142E1 -1.8354411786183682E1
1.583622841097216E1 -1.8319700595675595E1
1.5803930417558824E1 -1.8350792208566286E1
1.5659372474950063E1 -1.8341384310648834E1
1.5634174433914486E1 -1.8334687173459272E1
1.5652229591023138E1 -1.835468547404266E1
1.5673580981695956E1 -1.8371458401056795E1
1.5659956778702968E1 -1.837638193474721E1
1.5875735716686762E1 -1.8419015949370365E1
1.5865606150436601E1 -1.843238434590488E1
1.5856407295008138E1 -1.8444206335842193E1
1.584864681965361E1 -1.8454987017053348E1
1.5842344095703307E1 -1.8465101622703685E1
1.5838058564047559E1 -1.8474891024774017E1
1.5836825687973116E1 -1.8484771656874376E1
1.583637218370937E1 -1.849457631636937E1
1.5836665692991724E1 -1.8504355059047423E1
1.5838333147803555E1 -1.8514289471748484E1
1.584152310067515E1 -1.8524513895157547E1
1.584350319288581E1 -1.8534540288367293E1
1.584673556930838E1 -1.8544785080988834E1
1.584947960255829E1 -1.8554942827571764E1
1.585276065164313E1 -1.8565206674088603E1
1.5856145963451933E1 -1.857549143368642E1
1.5860118443728531E1 -1.8585900198974446E1
1.586395805895588E1 -1.8596281472892226E1
1.5868088796040212E1 -1.8606726964459693E1
1.5872355944262267E1 -1.8617208622493408E1
1.5877139267818706E1 -1.862780372661967E1
1.5881779990547988E1 -1.8638375529156203E1
1.5886727077709393E1 -1.8649028008546054E1
1.5892013098157399E1 -1.865975868839468E1
1.5897366163949725E1 -1.8670519547374635E1
1.5903057379103807E1 -1.8681364818786275E1
1.5908918883259282E1 -1.8692260936177625E1
1.5914859137192574E1 -1.8703201170106937E1
1.5921124715262708E1 -1.8714223966959565E1
1.5927610683187467E1 -1.872530859687568E1
1.5934346038773768E1 -1.8736466403700952E1
1.5941262414709605E1 -1.8747668085640168E1
1.5948382613822282E1 -1.875895588920035E1
1.5955729652322722E1 -1.8770292851017555E1
1.5963280400614874E1 -1.8781690763130054E1
1.5971074854131496E1 -1.8793149713989287E1
1.5978988070171745E1 -1.8804655928103237E1
1.5987193130104002E1 -1.8816224725615953E1
1.5995569128299955E1 -1.8827836086119206E1
1.600422394351977E1 -1.8839525442592937E1
1.6012893463342756E1 -1.8851190192614414E1
1.6016648423602973E1 -1.886124157199413E1
1.601458295753324E1 -1.8869269982961388E1
1.601285529069183E1 -1.8877211678584068E1
1.6011697858347176E1 -1.888517708312567E1
1.6015341326959145E1 -1.8894865652091422E1
1.6025085186392026E1 -1.890689192185082E1
1.603471570192576E1 -1.8918851655897456E1
1.6044504770556742E1 -1.8930858483699083E1
1.6054293533330437E1 -1.894284697202615E1
1.6064037234686015E1 -1.8954793267870627E1
1.60738601474463E1 -1.8966754491293678E1
1.6083599007667893E1 -1.8978665400320946E1
1.609333254869477E1 -1.8990556155433122E1
1.610318484588448E1 -1.900246662494714E1
1.6112892432054434E1 -1.901430481178031E1
1.6122695124583625E1 -1.9026158287267794E1
1.613251448629896E1 -1.9038000722633395E1
1.61422519412378E1 -1.904978960830937E1
