%%MatrixMarket matrix array complex general
%
1000 1
6.153318405430903E-1 -6.154106980067275E-1
8.701509180017469E-1 -8.703766939431695E-1
1.0656435297754228 -1.066072740381638
1.2304369438753413 -1.2310667852964254
1.3755696189434024 -1.3764551679746098
1.506750781093286 -1.507932324768056
1.6273854293562189 -1.628868997705448
1.7395875652191908 -1.7415331081477499
1.8450406779292792 -1.847183713947713
1.9447153516474962 -1.9472289972672177
2.039514490535157 -2.0424037568910376
2.130240676211598 -2.1332349538448403
2.2168907839688887 -2.220604321056923
2.3004194779599163 -2.304575852295017
2.381035416843364 -2.3856374063433523
2.459007829027048 -2.4640302900000126
2.5341995022019073 -2.539961723702145
2.6077962006376683 -2.6137889087012907
2.6789972434015388 -2.6855716897651374
2.7482377824133564 -2.7555715111380725
2.815614561009651 -2.8240903918446545
2.8822541611859127 -2.890463672895197
2.947430376810127 -2.9560796169515644
3.010018186653826 -3.0193277564057674
3.0714158863985466 -3.0826171028040137
3.132338469625371 -3.143220323326894
3.1917533439787995 -3.203390399512474
3.2505417205769183 -3.262249524913658
3.307839516007221 -3.3201699314602315
3.3638052906080653 -3.376926168973866
3.417601075962832 -3.432503571649956
3.472896146327794 -3.4879699618568085
3.526302935843557 -3.542284322315979
3.5798063390203003 -3.5962607555730655
3.6323062494682863 -3.649156718604636
3.6835432164576476 -3.7005859569413033
3.7360125188237827 -3.752955154828234
3.7829243586928545 -3.8031222973433905
3.833236779780097 -3.8526892208501398
3.8849097971744504 -3.902129030233889
3.92985954837409 -3.9509381560691086
3.977219737415584 -3.998849111954057
4.024171121605916 -4.045947146504281
4.067340283559594 -4.092501814340719
4.11587925909442 -4.14006809639187
4.1612647865122305 -4.184731346080068
4.204846006458255 -4.230988083731099
4.249300977619168 -4.276265405536159
4.292331993429344 -4.320971944917591
4.336291833697755 -4.364863735111769
4.380267887376955 -4.411265222537707
4.422676826409423 -4.452010654538756
4.469693107185042 -4.495425461155371
4.512178805118802 -4.5393410649216
4.551189205829562 -4.580820882502932
4.59404116809298 -4.623050501360209
4.628905010804861 -4.663113059956753
4.668897059207427 -4.704296274337871
4.708372711928582 -4.745808733150819
4.745771950784642 -4.7859499346232415
4.787259273036566 -4.825158907962905
4.819527519367963 -4.862888698753446
4.862183063259624 -4.903813879320752
4.899900594824934 -4.942474918135294
4.938713997915886 -4.983276034883476
4.97308323119181 -5.022845854415462
5.006544180777179 -5.0622605847341005
5.042817902298961 -5.100754161939658
5.088495153668803 -5.134629738200141
5.120123390539298 -5.173535424063531
5.160944499955533 -5.209707187748399
5.1978929843785515 -5.2461370279525745
5.233503713702546 -5.282876744775806
5.268152403978235 -5.318849558237841
5.303412583717276 -5.356420342066355
5.33819478734796 -5.390825258423887
5.373360652438013 -5.425914492759445
5.407379941987259 -5.462402882494253
5.441397849177501 -5.497872189035699
5.465430220424521 -5.532061536192787
5.512910096537878 -5.565960085059854
5.547519207885995 -5.603442546061328
5.5640080159046095 -5.623182176486822
5.6070243783066385 -5.670294766371216
5.639278814908788 -5.699953496313291
5.674759011154329 -5.7384341717531315
5.707083554001514 -5.772329509353057
5.739370258925538 -5.805354932335138
5.758029541969033 -5.843898624694122
5.78995542386154 -5.8772345457410555
5.8229978246602085 -5.910451188075099
5.851765666367575 -5.944167943615475
5.897915227554063 -5.969624904579449
5.926223738111703 -6.003000247687082
5.960385149147801 -6.034472243481118
5.990416755441105 -6.066338539380828
6.023151412575579 -6.098516268671778
6.039052715728551 -6.138531003444651
6.087859016398237 -6.1613058778174254
6.115998580749775 -6.194074266950388
6.143856508846838 -6.225477356406766
6.17406012489307 -6.256542038852873
6.20393612193298 -6.287367186034039
6.23343885503957 -6.318054574528899
6.262250287057856 -6.348437584313704
6.292098985437823 -6.379764763634863
6.323586508198233 -6.410651052072842
6.351840810481508 -6.440398829460765
6.37688902243424 -6.471940927665643
6.416087442365408 -6.498257393732415
6.44496049124718 -6.52811612213472
6.473656231335726 -6.55781212827726
6.48538357377861 -6.594367861668601
6.516897939195423 -6.622729606923275
6.5488201105246615 -6.650807586051097
6.580222343943994 -6.678795690886897
6.605422765787313 -6.708134398976621
6.633239508703509 -6.736446086692867
6.660923071948349 -6.7648493185156
6.682026498406252 -6.795829557687099
6.712462780635868 -6.824118999065086
6.738738897085517 -6.852870208864103
6.765133325992326 -6.88126083471536
6.789624397996679 -6.910157134808751
6.813516127306034 -6.938809894550401
6.837772529038262 -6.966849295907152
6.875272632460987 -6.990604551592821
6.903724707647349 -7.021303415005981
6.911301970009459 -7.048320437788032
6.928701574334065 -7.0803692337342445
6.97984150480406 -7.106883073956711
7.0085267544328165 -7.132935866608048
7.013444019304949 -7.1667761892000925
7.031951368512548 -7.193767347428098
7.058299178798119 -7.218516367255655
7.112353409352114 -7.241706303402907
7.136907984470553 -7.2656385816184725
7.159657492721399 -7.294092001900428
7.187252602138629 -7.32048678910999
7.209548758289623 -7.351116456112803
7.236526260439809 -7.374498655887374
7.226781707226273 -7.366489214059141
7.290928572404933 -7.428552878567704
7.31843721685313 -7.454460941183185
7.306911302315271 -7.470288625171142
7.365896043003629 -7.491605137652218
7.396285169631404 -7.534685849405014
7.415037159791747 -7.559059876082726
7.439404060810829 -7.584644821853969
7.448598872711365 -7.614254059448652
7.466301792498445 -7.638914766084575
7.50614189300971 -7.663472511808995
7.52882733969419 -7.69088721027751
7.555496775731944 -7.712897246918399
7.583454088879373 -7.73892294742577
7.608718625228254 -7.751211314480761
7.6284293370585585 -7.793349558671186
7.65326643720875 -7.814530124323301
7.67386035625697 -7.819333797081915
7.701322077609324 -7.867746268543808
7.708072136843443 -7.901978374063743
7.741040689174226 -7.909106313368909
7.773372573721699 -7.938877198174879
7.79372130866818 -7.962226448827949
7.799023613473611 -7.994148543619984
7.8374407175245056 -8.01370891216403
7.850304512685898 -8.04029819356189
7.858327562088804 -8.059515768009053
7.883949122057291 -8.084177032133889
7.928013257532366 -8.117226395517285
7.948257284652768 -8.141667306511497
7.9790632263026895 -8.16061818580357
7.972972815321428 -8.194589866309238
8.001133335900619 -8.217619818637614
8.029512478356235 -8.240309429028873
8.057496822460093 -8.262866683636922
8.079583490684255 -8.287223078506207
8.062628182453409 -8.318282423597749
8.13508726393205 -8.327835829204737
8.144903489312007 -8.355270859025271
8.13417107901995 -8.316258990797271
8.133376447392147 -8.341736625368503
8.220709595153437 -8.424466340379011
8.223398006641316 -8.45306361191724
8.268755722490308 -8.469090141884124
8.299571274111525 -8.489434207970733
8.310709065175248 -8.514451366197093
8.315259105745731 -8.557031027287284
8.286648696468957 -8.615257048074131
8.349048441218601 -8.605233479398356
8.376356713354562 -8.620503999497855
8.409912355531922 -8.64123877005847
8.441425545000945 -8.65652235632252
8.405849777088655 -8.704912728167182
8.437810476407519 -8.720974954002255
8.463433193871621 -8.741119741935004
8.474657749180851 -8.770971227670593
8.492272850059566 -8.796595398935374
8.47912505411333 -8.849320037496405
8.585979860805644 -8.816649976244788
8.602402096243436 -8.840416230340912
8.616630414034951 -8.864982557154445
8.628517080482297 -8.890771407104102
8.586504960787837 -8.917602314445645
8.627210475322517 -8.93474919802575
8.704826669559136 -8.955801450681632
8.719076613763422 -8.981006526188994
8.732761184965076 -9.006448022477164
8.74687653888995 -9.031590903707363
8.762209587859251 -9.055982076858792
8.797158994461237 -9.079670263030792
8.802597112289511 -9.113056213450857
8.810786753993419 -9.144978784948002
8.822458626611333 -9.17456089321956
8.892968335575864 -9.151518896180258
8.915066516060303 -9.172383293435479
8.886461654027178 -9.181323353338575
8.865588206796673 -9.255515817389671
8.971331803687752 -9.23950706326254
8.987163157268224 -9.262666354165598
8.986740549601631 -9.2446036768879
9.007885962684735 -9.269003819318844
9.018379311788589 -9.306187747499814
8.993906189530334 -9.440064295183406
9.061772007157181 -9.397313990698132
9.108452532978227 -9.382922458195457
9.246537736666742 -9.453300579933753
9.167330620287467 -9.427660080898187
9.191005289381522 -9.484803342396761
9.304739066847597 -9.532330178636109
9.210679123339393 -9.491360625062967
9.227211685313424 -9.506738284514814
9.206915163719115 -9.635725423305939
9.271449963386683 -9.555904423693693
9.190711862175355 -9.697106893827574
9.306999970552404 -9.599908729987844
9.303320337188687 -9.578943738618374
9.261969231527532 -9.67124200482558
9.33499722472523 -9.686280592603449
9.3282137430277 -9.727889824405496
9.380809630735728 -9.718987779322866
9.402946980289611 -9.737576537734942
9.427079963549833 -9.755236596355566
9.435183881642645 -9.780922402946729
9.444164263801985 -9.804614038801624
9.481022526975721 -9.814080682901299
9.49349644439488 -9.83657289313083
9.504467179672341 -9.857822038603889
9.54268066341084 -9.876610848258613
9.56136542407208 -9.897085490768845
9.580090138848057 -9.917490297143335
9.598847776948311 -9.937824182329338
9.61764030084268 -9.958083296207798
9.636482987146797 -9.978256553435653
9.65536362376868 -9.998343049100503
9.67428863693879 -1.0018334442570977E1
9.693251584719182 -1.0038226879745727E1
9.712249904779938 -1.0058014012050306E1
9.731272270021433 -1.0077693566835427E1
9.609399576073189 -1.0105111212266232E1
9.641425408968743 -1.0126347627150523E1
9.673883946983704 -1.0147110996860313E1
9.70644674550803 -1.0167332454868347E1
9.770405230073436 -1.0191956878385255E1
9.795583121928852 -1.0215250464052513E1
9.808182422102199 -1.0234108842752438E1
9.808455934394882 -1.0293253922487226E1
9.845255966535586 -1.0268922403615058E1
9.90473270309685 -1.02763999881356E1
9.932394864440763 -1.0286913144133818E1
1.000888339710337E1 -1.0385579731332115E1
9.965216372108458 -1.028898959972366E1
9.984624764202982 -1.0344429312527936E1
9.995919652833072 -1.0368986674602489E1
9.916158218873253 -1.039198503151895E1
9.993325078190258 -1.0416026404705613E1
9.990074305416698 -1.0435673256311777E1
1.0035741696295032E1 -1.0449593766987077E1
1.0041106983575613E1 -1.0463868163266218E1
1.0061958227943308E1 -1.0482542377957607E1
1.0118100030541465E1 -1.0513065758152386E1
1.0131396988412481E1 -1.0534898468163783E1
1.0146845114395154E1 -1.0555429827745675E1
1.0164506684247007E1 -1.0574902674345957E1
1.0085868651500965E1 -1.0584400473772737E1
1.0201910520386122E1 -1.0610734000920964E1
1.0224047699182234E1 -1.0628502213123745E1
1.0127814550832433E1 -1.0658174041663777E1
1.020111160070805E1 -1.0675302093145659E1
1.0229562929725141E1 -1.0693698312550454E1
1.0238167401177185E1 -1.071321745922389E1
1.0247707881444871E1 -1.0732475277681578E1
1.0258149343182096E1 -1.075153993630762E1
1.0267115005233276E1 -1.077047127126305E1
1.0268860233237818E1 -1.0788415549984146E1
1.0284043478151279E1 -1.0813152649212372E1
1.0336787025398994E1 -1.0824651175278788E1
1.0346695417153589E1 -1.0846661263068402E1
1.0364299702934682E1 -1.0867296649633307E1
1.0387029818923136E1 -1.0886488087283345E1
1.03056296474905E1 -1.086868932215669E1
1.0331038923475242E1 -1.0890001961292565E1
1.0365402357458462E1 -1.0911350740642224E1
1.0420116372652904E1 -1.0930365256246711E1
1.0485854233240678E1 -1.0979494199442877E1
1.0407866740276301E1 -1.0966261108779294E1
1.0442257838920481E1 -1.1015317432039517E1
1.0530524048270186E1 -1.1014557583972222E1
1.0501024733472834E1 -1.1143644207010226E1
1.05256921947136E1 -1.1246114955796616E1
1.0547405385604822E1 -1.1137340030590048E1
1.0608861990145364E1 -1.1116718264857859E1
1.058603443221988E1 -1.1154058062487417E1
1.0587862010717544E1 -1.1208524113277468E1
1.0567160020330649E1 -1.1309484236685378E1
1.0705935936863288E1 -1.1169059098839796E1
1.072020084566237E1 -1.1178664506911907E1
1.0805621141044334E1 -1.1192936381925051E1
1.0752925904991258E1 -1.1209213714141423E1
1.0769683007165803E1 -1.124128621205144E1
1.0593603174804539E1 -1.1238868802448122E1
1.0730877962461948E1 -1.1252924400952725E1
1.0791360049067052E1 -1.1304898523188626E1
1.0807943625220622E1 -1.1323177515792949E1
1.0758653820911466E1 -1.134510500185938E1
1.0781315853248724E1 -1.1359369253717814E1
1.0686775113182547E1 -1.1367905537355497E1
1.0772112750427725E1 -1.1395172562277523E1
1.0795876080686796E1 -1.1415186463999477E1
1.0800471044267844E1 -1.1433548774501292E1
1.080844802890791E1 -1.1451987538860546E1
1.0821282279756542E1 -1.1470851684493823E1
1.0839122693537345E1 -1.1490200901616745E1
1.0861797152479614E1 -1.1509865785173092E1
1.0840790543175336E1 -1.152188544603583E1
1.102209460543745E1 -1.1538739502584223E1
1.1032326610928942E1 -1.15583985267322E1
1.1042050230707327E1 -1.1577795867630286E1
1.1051349876420966E1 -1.1596936189654878E1
1.105875303138806E1 -1.161627403415457E1
1.106569167811911E1 -1.163519642592189E1
1.1096824323125956E1 -1.1650662484645782E1
1.0933990398009124E1 -1.1658143957910108E1
1.0985530268917204E1 -1.1680474577865343E1
1.0993607712479918E1 -1.1695915565475044E1
1.1087128467280086E1 -1.1671455170102002E1
1.117017853470019E1 -1.1749706425699737E1
1.1067460358447514E1 -1.193398320782671E1
1.108127987354085E1 -1.1955374767416236E1
1.1221020121530705E1 -1.1789174939661947E1
1.1202439927380363E1 -1.1835555444933599E1
1.1185517870916062E1 -1.188960880353611E1
1.117651613582435E1 -1.1942954215142763E1
1.11729677954377E1 -1.2003447467973386E1
1.1193008836573316E1 -1.200986883954177E1
1.1206274869589393E1 -1.2030806414912869E1
1.1213727247294248E1 -1.206496267531105E1
1.121731262066007E1 -1.2111509375462555E1
1.1227057104222304E1 -1.2163549262473925E1
1.1246646411606003E1 -1.2162874843661543E1
1.1268220957925678E1 -1.2157717162330618E1
1.128760559664486E1 -1.2168278800247027E1
1.1304844537130442E1 -1.2180879233780521E1
1.1321617322155335E1 -1.2193775394200763E1
1.133499249013334E1 -1.2215519314920762E1
1.1346236682550538E1 -1.2243227165235567E1
1.135803365210952E1 -1.2269793509156202E1
1.1370371638359904E1 -1.2294989885848297E1
1.1383182812959458E1 -1.231884535534532E1
1.1396470660359997E1 -1.2341212427249038E1
1.1410209166423531E1 -1.236203343456124E1
1.142433234790795E1 -1.2381483891743658E1
1.1438879489171326E1 -1.239936392048554E1
1.1453774261809139E1 -1.24159644066353E1
1.1469068804408241E1 -1.2431027977166462E1
1.148471476953642E1 -1.2444895002607463E1
1.1641319585511196E1 -1.224799726094521E1
1.1652503724874451E1 -1.2266839638384829E1
1.1663514170682596E1 -1.228592299440919E1
1.1674325963335368E1 -1.230527831807984E1
1.1684975921189267E1 -1.2324903601570357E1
1.1695482609925149E1 -1.234479933890426E1
1.170588583227654E1 -1.2364954659362262E1
1.1716329777750547E1 -1.2385254684566553E1
1.1726694147533728E1 -1.2405800181767923E1
1.1736963954419835E1 -1.2426623354885754E1
1.1747490960611133E1 -1.2447374982635463E1
1.1757837784084415E1 -1.2468488205395484E1
1.1768420106196215E1 -1.2489523346545752E1
1.1691279773034191E1 -1.269326652202715E1
1.1704995052988146E1 -1.2712977344336892E1
1.1718868211968815E1 -1.273202807927522E1
1.1732862641628499E1 -1.275051331692028E1
1.1746976123350745E1 -1.276845515813958E1
1.1761166214735354E1 -1.278598541372353E1
1.1775463808097323E1 -1.2802937642195008E1
1.178984093706303E1 -1.2819531913383445E1
1.1804291333166741E1 -1.283567933682282E1
1.1818839393945279E1 -1.2851415003608885E1
1.1833419388781666E1 -1.286690451662203E1
1.1848057199451244E1 -1.2882064867234835E1
1.1862779393957316E1 -1.2896869918211646E1
1.1876578767359712E1 -1.2915452059107151E1
1.1887394199534759E1 -1.2947982318059147E1
1.2041768022611317E1 -1.2719260408789888E1
1.2054196709809293E1 -1.273673525430098E1
1.206661196946204E1 -1.275423089224675E1
1.2078944274911953E1 -1.277179105031877E1
1.2091283648055283E1 -1.2789360081284745E1
1.2103657867731883E1 -1.2806915776136673E1
1.2116007981392025E1 -1.2824498126357243E1
1.2128418343828526E1 -1.284204078030551E1
1.2140754409758564E1 -1.2859648188041641E1
1.2153082317064477E1 -1.2877266040593016E1
1.21655088418254E1 -1.2894810739808493E1
1.2177924641500365E1 -1.2912363587543032E1
1.2190388455223019E1 -1.2929876203573675E1
1.2202804122054221E1 -1.2947428719097795E1
1.2215194769923626E1 -1.2964953274264113E1
1.2227584039528969E1 -1.2982417899108457E1
1.2239862045984104E1 -1.2999978056955305E1
1.2252327138426661E1 -1.3017370431272859E1
1.226478230269136E1 -1.3034764391548057E1
1.2277244766032066E1 -1.3052137631996473E1
1.2289831722785637E1 -1.3069389276985433E1
1.2302381381686116E1 -1.3086660267131913E1
1.2314961237869824E1 -1.3103889715725511E1
1.2327603950908907E1 -1.3121043857742691E1
1.2340305193828481E1 -1.31381228028684E1
1.2353039725911959E1 -1.3155150172317041E1
1.2365914413923198E1 -1.3172016627140394E1
1.2378752587452876E1 -1.3188896610326733E1
1.2391602149411016E1 -1.3205742922228245E1
1.2404541860336094E1 -1.3222474361894134E1
1.2417583307283337E1 -1.3239075853280704E1
1.2430609206946029E1 -1.3255657655174206E1
1.2443629657051389E1 -1.3272226460635679E1
1.2456806977897108E1 -1.3288595489594442E1
1.2469919521812553E1 -1.33050067546647E1
1.2483161395450226E1 -1.3321243054878606E1
1.2496394899639922E1 -1.3337462414125223E1
1.2509820135286086E1 -1.3353439827621356E1
1.252300781155607E1 -1.3369651528229124E1
1.253657047847257E1 -1.338541314998735E1
1.2549921247015586E1 -1.3401377257432143E1
1.2563409915864355E1 -1.3417159615827563E1
1.2577033151070879E1 -1.3432763602690374E1
1.2590549297875912E1 -1.3448450702147456E1
1.260417520616499E1 -1.3463991851422636E1
1.261784849574867E1 -1.3479440679577355E1
1.2631397563392987E1 -1.3494998443143073E1
1.2645166284633506E1 -1.3510286452912501E1
1.2658933418845468E1 -1.35255449726728E1
1.2672710797758153E1 -1.354076394514837E1
1.2686563558763313E1 -1.3555869623359527E1
1.2700479241080897E1 -1.3570887466027093E1
1.2714359920683265E1 -1.3585914205267873E1
1.2728275222665168E1 -1.360087655925681E1
1.2742232889919322E1 -1.3615768795348703E1
1.2756322557234592E1 -1.3630500480878109E1
1.277030622463908E1 -1.3645322293739175E1
1.2784362576376346E1 -1.3660045210665091E1
1.2798438039222876E1 -1.3674728964387516E1
1.2812518422690005E1 -1.3689386855398755E1
1.2826666856036917E1 -1.3703959564030377E1
1.284083555740665E1 -1.3718498715551437E1
1.2855017836469406E1 -1.373300700863254E1
1.2869237841701953E1 -1.3747466634950083E1
1.2883423497713718E1 -1.376192611289612E1
1.2897439107183503E1 -1.3776464491107522E1
1.2911537339359693E1 -1.3790907153233313E1
1.2925656747325887E1 -1.3805319499774557E1
1.2888202769002795E1 -1.388380530517119E1
1.2903797685636338E1 -1.3895057097887708E1
1.2919734023039116E1 -1.3905844228573592E1
1.2935584359509159E1 -1.3916899773344817E1
1.2951681203049157E1 -1.3927690745915465E1
1.296770962172482E1 -1.3938710345601729E1
1.298402048565058E1 -1.3949471930478847E1
1.2999965314369424E1 -1.3960667770506717E1
1.3015833077414486E1 -1.3971966333466542E1
1.303163550987985E1 -1.3983475268253434E1
1.3047601695761276E1 -1.399488816044824E1
1.306362306276994E1 -1.4006369507489058E1
1.3079630806811751E1 -1.401800181015942E1
1.3095632892923337E1 -1.4029774730220625E1
1.3111783789706791E1 -1.404152707956152E1
1.3127914430099164E1 -1.4053447721543078E1
1.3143929888859576E1 -1.4065622982679614E1
1.3159846899973575E1 -1.4078020900684827E1
1.317579647604327E1 -1.4090522452665873E1
1.3191811700466994E1 -1.4103112210659004E1
1.3207584649768648E1 -1.4116026255489432E1
1.3223278691305165E1 -1.4129124051260987E1
1.311894767342361E1 -1.4376794454859775E1
1.3131472176334963E1 -1.4394857981656385E1
1.3144130786526638E1 -1.441213584220444E1
1.3156957467982938E1 -1.442838478358508E1
1.31698960888454E1 -1.4443719564539457E1
1.318298135989953E1 -1.4458055977872538E1
1.3196186885969961E1 -1.4471377214341462E1
1.3209532432112114E1 -1.4483728662804701E1
1.3223022673011906E1 -1.4494998611560483E1
1.3236682968943141E1 -1.4505281517905518E1
1.3250486223638683E1 -1.4514619713193499E1
1.326447794398441E1 -1.4523075621169212E1
1.3278664503775568E1 -1.4530588850423184E1
1.3293114037696293E1 -1.4537150130148623E1
1.3307535619218136E1 -1.4545617869797884E1
1.3320503737408973E1 -1.4559109983828858E1
1.3332899896296073E1 -1.4572759586959892E1
1.3345222434648258E1 -1.4588091298903162E1
1.3357089351637015E1 -1.4603235925733234E1
1.3369408659796512E1 -1.461595285413011E1
1.3382793032680215E1 -1.4624853781403175E1
1.3397674779162275E1 -1.4628867579628102E1
1.3414959460063246E1 -1.4626239617018003E1
1.343578537940976E1 -1.4616550625603876E1
1.3460756705026794E1 -1.4601145166395009E1
1.3491748121467916E1 -1.458001481519842E1
1.3529235342775072E1 -1.4560093412193975E1
1.3458213753064902E1 -1.4784441891595309E1
1.3475767985442948E1 -1.4782731372083584E1
1.3595020393259544E1 -1.4578952026447427E1
1.3551414127846119E1 -1.4560756033464804E1
1.3447580434072433E1 -1.4610736947816909E1
1.343456807991467E1 -1.4618272960002411E1
1.3449393505687551E1 -1.4638341908601445E1
1.3633116255306142E1 -1.4666496741987086E1
1.3615732048298666E1 -1.4683506771875319E1
1.3598013781879613E1 -1.4697813450458595E1
1.3585207793529358E1 -1.4710204676656819E1
1.3569950723735568E1 -1.4721714662101052E1
1.3551735152686522E1 -1.4731679267464456E1
1.3543810441021936E1 -1.474195179442479E1
1.3543803823965652E1 -1.4753432615706883E1
1.3549179024386016E1 -1.4766070171551728E1
1.3558603159516325E1 -1.478000198323107E1
1.3581458829321134E1 -1.4794321590049535E1
1.3601391069553276E1 -1.4811576699988368E1
1.362077287073376E1 -1.482854184995935E1
1.363995346570403E1 -1.484533131097637E1
1.3658410529078033E1 -1.4861818070474433E1
1.367670683712972E1 -1.4878172614265763E1
1.3694395881841888E1 -1.4894291447394579E1
1.3711636919224318E1 -1.4910233241006289E1
1.3728455353480003E1 -1.4926016268765151E1
1.3745008603751868E1 -1.4941679873353058E1
1.3760976965908853E1 -1.4957179591816747E1
1.3776627159441531E1 -1.4972570020289433E1
1.3791804255601345E1 -1.4987838023623924E1
1.3806591308381577E1 -1.5003004411803786E1
1.3820986660167708E1 -1.5018080667383334E1
1.383489250767417E1 -1.5033055366824826E1
1.3848610666656214E1 -1.5047982176517474E1
1.3861727833745512E1 -1.5062808077686386E1
1.3874375274388118E1 -1.507755856366582E1
1.3886984181746385E1 -1.5092290099311507E1
1.389882343138397E1 -1.5106913538672847E1
1.3910426231967277E1 -1.5121500456896282E1
1.3921599208453195E1 -1.5136026236608425E1
1.3932364453103483E1 -1.5150494743671416E1
1.3942862970374318E1 -1.5164921613558034E1
1.3952781661650743E1 -1.5179264606575323E1
1.3962448533308628E1 -1.5193563730959678E1
1.397171019206068E1 -1.5207795514868659E1
1.3980451511330207E1 -1.5221936977925175E1
1.4021930199376836E1 -1.5236742162637427E1
1.4038197017036106E1 -1.525154114492915E1
1.4054606498781542E1 -1.5266282846020177E1
1.4071073984692484E1 -1.5280955049875068E1
1.4087634457079256E1 -1.5295551949125318E1
1.4104265725035363E1 -1.531006692998273E1
1.4120954999637565E1 -1.5324487118308646E1
1.4137641147548477E1 -1.5338806853648501E1
1.4154395729986236E1 -1.5353014298396433E1
1.4171170251086405E1 -1.5367100426121372E1
1.4187939943938872E1 -1.5381056826271465E1
1.4204720094599791E1 -1.5394866291246194E1
1.422132774729101E1 -1.5408543928049127E1
1.4237982212643226E1 -1.5422050380171207E1
1.4254521915537218E1 -1.5435397661199177E1
1.4270906844075123E1 -1.5448585990104037E1
1.4286775912489658E1 -1.5461758130350686E1
1.4301947882377041E1 -1.5475047011839374E1
1.431695716071506E1 -1.5488238846213331E1
1.433181182384954E1 -1.5501331761134821E1
1.413426904174025E1 -1.5499806891360638E1
1.4168021065861744E1 -1.5521166896505996E1
1.4201761896931329E1 -1.554149057032825E1
1.423564451233374E1 -1.5560752410490663E1
1.426951851862235E1 -1.5578820952277601E1
1.4280052989726144E1 -1.5592547851649766E1
1.4288594654814146E1 -1.5605847395051399E1
1.429837194276443E1 -1.5619250082390257E1
1.4309436465395388E1 -1.5632787948013661E1
1.432185170258685E1 -1.5646491124028634E1
1.4335538670045542E1 -1.5660332594221728E1
1.4350497292972705E1 -1.5674299531098034E1
1.436664542851369E1 -1.5688357778941667E1
1.4383956733068123E1 -1.5702461468733974E1
1.4398744498718818E1 -1.5716391223678151E1
1.4398673120773864E1 -1.5729421784118857E1
1.438241087474347E1 -1.5740590990364453E1
1.4380972492245654E1 -1.5751667759126425E1
1.4443867998234817E1 -1.5770884532596487E1
1.4464678273641665E1 -1.5785822524397062E1
1.4485516009492963E1 -1.5800722391586708E1
1.4496505584809986E1 -1.581658913517058E1
1.4572419760582067E1 -1.5824705334642855E1
1.4578736062417226E1 -1.5835795196435015E1
1.4585439903432059E1 -1.5850083523442615E1
1.4617611999810409E1 -1.586426499526592E1
1.4469359492265056E1 -1.5848590426279209E1
1.4515244212560278E1 -1.5871798695288264E1
1.4487462433716255E1 -1.5882149417979E1
1.4585152810709467E1 -1.5894415973070371E1
1.4496787424761381E1 -1.5869717680556743E1
1.463860524821996E1 -1.5936662174796808E1
1.471669443677609E1 -1.594147619905631E1
1.4566365117274685E1 -1.5795104000197302E1
1.451907556960089E1 -1.605774687356967E1
1.484074718200359E1 -1.6186434364080394E1
1.4764018918239897E1 -1.599689105995992E1
1.4730637643666874E1 -1.608803302176899E1
1.4769952690003132E1 -1.6042412900164678E1
1.4737873321289484E1 -1.611705906542997E1
1.4724875042689192E1 -1.6222597647498876E1
1.4748070062768365E1 -1.617372246040745E1
1.4760439476220567E1 -1.6191013316907764E1
1.4767331694958154E1 -1.6301059445921865E1
1.4800471519805997E1 -1.615634082296189E1
1.4813601544676306E1 -1.6169600406936063E1
1.4781728865012088E1 -1.6288019392059653E1
1.478061799405437E1 -1.6347238050209402E1
1.4831537514059935E1 -1.622844803781964E1
1.4854541280405876E1 -1.6242924886746945E1
1.4864753068967364E1 -1.6215383031526326E1
1.4851723649100792E1 -1.6299733459872996E1
1.4887928792854774E1 -1.634887199588564E1
1.4880212987319593E1 -1.6261731400049918E1
1.4893858778547639E1 -1.627588949669499E1
1.4944086119995292E1 -1.6283067219900875E1
1.48314224143543E1 -1.6281310142939944E1
1.4941603328993939E1 -1.631490646828603E1
1.4948200943863018E1 -1.6329646814986337E1
1.4958908281304987E1 -1.6343340615452206E1
1.4872644688982023E1 -1.6329150477766966E1
1.4856095458869556E1 -1.6334579710564547E1
1.4851572983799525E1 -1.634265985330859E1
1.4856330937174084E1 -1.635393210495541E1
1.4863474021503492E1 -1.6366062223338563E1
1.4871764482732843E1 -1.6378602533860416E1
1.4882259998780938E1 -1.6392040411707598E1
1.4898668601091995E1 -1.6407935749846622E1
1.4910265929884721E1 -1.6421976256363504E1
1.4918247895787347E1 -1.6434720815347994E1
1.5059652323201556E1 -1.649428752298794E1
1.5066811576762293E1 -1.650785094258523E1
1.5074725190394936E1 -1.6521136999983455E1
1.5083580388193019E1 -1.6534133802144364E1
1.5093693247902097E1 -1.6546864838229595E1
1.5105241961428467E1 -1.6559356208181427E1
1.511831780442126E1 -1.657164838759699E1
1.5118063859965462E1 -1.6590672328351086E1
1.5110535884128758E1 -1.6604089842040214E1
1.5113156250286712E1 -1.6615335122843117E1
1.5131336407824922E1 -1.662918325229217E1
1.5149398572464287E1 -1.6642785059936976E1
1.5167460676278411E1 -1.66561015401248E1
1.5180880402182586E1 -1.6669675990164524E1
1.5194151096878219E1 -1.668322221076172E1
1.5207373556100825E1 -1.6696737229687617E1
1.5220344009093859E1 -1.6710246091228385E1
1.5231443428346886E1 -1.6723975792836153E1
1.5243607110189267E1 -1.6737582500942175E1
1.5256814328305085E1 -1.6751035464784266E1
1.5271058308818038E1 -1.6764289443878802E1
1.5286297349511692E1 -1.6777284425019722E1
1.52957064660735E1 -1.6790733317647568E1
1.5291084401994604E1 -1.6805206779647257E1
1.5280825868752308E1 -1.6818952352088196E1
1.5268926777530698E1 -1.6831011792898597E1
1.525577509449273E1 -1.684128087865311E1
1.5241458882491084E1 -1.6849670533206222E1
1.5226624036378517E1 -1.685625554557687E1
1.541428136538054E1 -1.687426229211414E1
1.5421702275015974E1 -1.688875373400225E1
1.5428927668209914E1 -1.6903155059511366E1
1.5334384034648258E1 -1.691262029162817E1
1.5362329331279696E1 -1.6928638922001372E1
1.537144686483162E1 -1.694224781993956E1
1.546795566126023E1 -1.6957405438632865E1
1.5477470441922781E1 -1.697099559587327E1
1.548733792525115E1 -1.6984433501227805E1
1.5497587035121498E1 -1.699769914585338E1
1.5508251581875474E1 -1.7010765537849238E1
1.5519342325059402E1 -1.702360891496072E1
1.5530842108056744E1 -1.7036211863238545E1
1.5542737518462516E1 -1.704855374303085E1
1.5512594108415318E1 -1.705763556207314E1
1.5522094614948795E1 -1.7070224703503246E1
1.5528352334005042E1 -1.7082924736999647E1
1.5536174267164172E1 -1.7096125300286737E1
1.5546022780347576E1 -1.710982135882971E1
1.5559089822662303E1 -1.7123842296610878E1
1.5576457854071121E1 -1.7137775529562752E1
1.5588519621347894E1 -1.71514633428382E1
1.5590643341679344E1 -1.7164276971689905E1
1.5590827271358425E1 -1.717968058582204E1
1.5594532131945726E1 -1.7194473650652426E1
1.5603284229758788E1 -1.7208508507849245E1
1.5618697541857543E1 -1.7221461143458104E1
1.564227476358302E1 -1.7232730968754357E1
1.5628787725158757E1 -1.723819734631443E1
1.5628453582155789E1 -1.7252494236955677E1
1.5639771713339616E1 -1.7266588694814168E1
1.5722709366246342E1 -1.727629947478136E1
1.5560773873100482E1 -1.7221659756875127E1
1.5614021997394138E1 -1.7256361658938864E1
1.5768137521368152E1 -1.7309083709804618E1
1.5637053650506562E1 -1.721328185996547E1
1.563062530500344E1 -1.723134113591043E1
1.5609922923188973E1 -1.7276663217723144E1
1.569087179364996E1 -1.7408516867614793E1
1.5700545145527517E1 -1.7447935973810083E1
1.5866833600127517E1 -1.7474821080624416E1
1.5892659670814336E1 -1.750818248976795E1
1.5852511143019413E1 -1.741183738415003E1
1.5861466149244341E1 -1.742443241632356E1
1.5852184787625514E1 -1.7464818370585668E1
1.5860901281446202E1 -1.747692359693439E1
1.5850341793935538E1 -1.7594809453919023E1
1.585651241817531E1 -1.755285499977499E1
1.5867307357198163E1 -1.7559163395509678E1
1.5882912694717167E1 -1.7553394156648825E1
1.5878309494533331E1 -1.760068396008688E1
1.5885291787107386E1 -1.7617509226373283E1
1.5895588293145993E1 -1.762657836110978E1
1.5908452561640747E1 -1.7629954344866306E1
1.5923429921502512E1 -1.762952231986102E1
1.5933043294742962E1 -1.76473020103562E1
1.5943093718610646E1 -1.765824425562746E1
1.5951908143455226E1 -1.7672870804803534E1
1.5959363208831125E1 -1.7691625754376695E1
1.596841088175584E1 -1.7706406326664876E1
1.5978512733654725E1 -1.7718332753346992E1
1.5989385875549758E1 -1.772824636145486E1
1.5998153887568106E1 -1.7744316736296504E1
1.6023329918591806E1 -1.771137234661027E1
1.6030396340887634E1 -1.7727872891197965E1
1.6038020673803263E1 -1.7743979170889943E1
1.604619688270018E1 -1.7759577858534435E1
1.6054844980183212E1 -1.7774706916533383E1
1.6063937091234948E1 -1.7789303692243557E1
1.6073425775054943E1 -1.780340580976993E1
1.6083272362561054E1 -1.7816984872514308E1
1.6027706917117474E1 -1.7815881766543956E1
1.6032956324677507E1 -1.7828430359095567E1
1.6038281542490278E1 -1.7840912268143853E1
1.604362352479583E1 -1.785332352184202E1
1.6048963164449617E1 -1.7865666861874367E1
1.605447585643905E1 -1.7877966437365693E1
1.6059946896289976E1 -1.7890196471927027E1
1.606553217288983E1 -1.7902383199639218E1
1.6071189447323004E1 -1.7914524586310066E1
1.6076886752918547E1 -1.7926617838954385E1
1.6082694234225798E1 -1.7938678147909137E1
1.6088601253842583E1 -1.7950709037211848E1
1.609450792227725E1 -1.7962691117639668E1
1.6100529277899934E1 -1.7974654723532172E1
1.6106632133506803E1 -1.798659072825346E1
1.6112825743190744E1 -1.7998509352834798E1
1.6119073646553744E1 -1.8010397491173816E1
1.6125443637814122E1 -1.8022290268066964E1
1.6131839124982964E1 -1.803414640451954E1
1.6303141371598233E1 -1.8046857175243016E1
1.6312294201241535E1 -1.8059772723376675E1
1.632145298080314E1 -1.807267207972279E1
1.6330609987003875E1 -1.808555932356118E1
1.6339769099741943E1 -1.8098432667138884E1
1.6348926118397657E1 -1.8111294857441663E1
1.6358088804835724E1 -1.8124141990550754E1
1.6367250029489018E1 -1.813697808036482E1
1.637640868543059E1 -1.814980316964681E1
1.6385575169228606E1 -1.816261353079149E1
1.639473423035169E1 -1.8175415316532742E1
1.6403903191203327E1 -1.818820251915786E1
1.6413067785070705E1 -1.820098028557715E1
1.6422231364134376E1 -1.8213748825949963E1
1.643139538886097E1 -1.822650625886891E1
1.6440563547379693E1 -1.8239250061531447E1
1.6449731064810855E1 -1.8251985587598398E1
1.6458895939936436E1 -1.826471136064761E1
1.6468060585559858E1 -1.827742788822492E1
1.6477220482188425E1 -1.8290136866759504E1
1.6486384288027757E1 -1.8302834796491446E1
1.6495551492607813E1 -1.8315521629687254E1
1.6504716915650814E1 -1.8328198620711998E1
1.6513878321109107E1 -1.8340868200800188E1
1.65230419274278E1 -1.835352860748052E1
1.6513286028896076E1 -1.839176038787524E1
1.6522692164987838E1 -1.840442439790533E1
1.6532570586446134E1 -1.841634009068627E1
1.6542978005923214E1 -1.8427451377690463E1
1.6553914130556773E1 -1.8437803051427906E1
1.6565419051764305E1 -1.8447398304545192E1
1.657750296159753E1 -1.845629766254885E1
1.6588332969043137E1 -1.8466923063560596E1
1.65969120444001E1 -1.8480465421553067E1
1.6605592403559452E1 -1.8493894084702216E1
1.6614391419402555E1 -1.850717810299142E1
1.6623324934434596E1 -1.8520281514619885E1
1.6624539567296722E1 -1.8553631880205252E1
1.663222062807512E1 -1.8570275114563934E1
1.6640346833327754E1 -1.858587872941824E1
1.664884106390279E1 -1.860056880404489E1
1.6657707861452856E1 -1.8614265741998313E1
1.6666897200503524E1 -1.8627077851971265E1
1.6676388876953755E1 -1.8639076668346714E1
1.6686136503199368E1 -1.8650381003299874E1
1.6696128572662595E1 -1.8661051357856046E1
1.6706365262871316E1 -1.8671145944786836E1
1.6715766495982777E1 -1.8682929005517693E1
1.6724203990413915E1 -1.869667686762028E1
1.6732761556413653E1 -1.871014573124061E1
1.6741433845926185E1 -1.872333212921001E1
1.675026324669078E1 -1.873614570432214E1
1.6759213390227966E1 -1.874863147546216E1
1.6768337211664257E1 -1.8760694407692625E1
1.677762305727164E1 -1.877235492223656E1
1.6787094390664308E1 -1.8783544427283175E1
1.6796745828075043E1 -1.8794310183646644E1
1.6806586099370108E1 -1.8804636963192884E1
1.6816663951760734E1 -1.8814428566343217E1
1.683526639948383E1 -1.880273049999984E1
1.6844637935808517E1 -1.8814472559967566E1
1.6854068393256995E1 -1.8826154184778744E1
1.6863547344908408E1 -1.88377810693795E1
1.6873063991882216E1 -1.8849375884155773E1
1.688261769415389E1 -1.8860936084909437E1
1.6892197819197705E1 -1.887247441935164E1
1.6901796959772486E1 -1.8884004791004013E1
1.6911415546540596E1 -1.8895523037650584E1
1.6921066695349992E1 -1.8907013277800043E1
1.6930703148098488E1 -1.891853022019099E1
1.693867270588828E1 -1.8931876492680885E1
1.694632983930549E1 -1.894558076507194E1
1.6954159497945717E1 -1.8959102750948215E1
1.6962177234115273E1 -1.897241492312713E1
1.697035180744071E1 -1.8985549701780297E1
1.6978684530380374E1 -1.899849472222375E1
1.698718037764887E1 -1.9011242130862794E1
1.6995818265328356E1 -1.9023806742672935E1
1.7004599652852246E1 -1.903618993187984E1
1.701349844299883E1 -1.904841982492137E1
1.7022517335607965E1 -1.9060491628641895E1
1.7031645860942398E1 -1.907242028004932E1
1.704671687182566E1 -1.907678467573597E1
1.705614496266884E1 -1.908838130577463E1
1.7065563649325803E1 -1.909998519405514E1
1.707496085040582E1 -1.9111612258215445E1
1.708358319815735E1 -1.912420838581908E1
1.7091419150707228E1 -1.9137731382258433E1
1.7099043943074495E1 -1.9151448213238123E1
1.7106769125733617E1 -1.9165077566037763E1
1.7114588696598933E1 -1.9178614250761647E1
1.712254131465912E1 -1.919199575251411E1
1.7130589352812404E1 -1.92052626516021E1
1.7138753912384E1 -1.921837376829047E1
1.7147034226399004E1 -1.923132171059792E1
1.7155415401965442E1 -1.9244123888690215E1
1.7163889722548564E1 -1.9256780620034032E1
1.7151737099188328E1 -1.933037208030658E1
1.7160819251804337E1 -1.9341420055313947E1
1.7169930362194158E1 -1.935237740450696E1
1.7179073784610193E1 -1.9363253857651355E1
1.7188245458219136E1 -1.937404832136882E1
1.71974452021549E1 -1.9384761338759745E1
1.7206689048306544E1 -1.9395376094170874E1
1.721595514920714E1 -1.940593215267886E1
1.7225257288253214E1 -1.941640561012324E1
1.723459508763213E1 -1.9426787350092543E1
1.7243962637626502E1 -1.9437119417670264E1
1.7253380979491705E1 -1.944733516034989E1
1.726279759025637E1 -1.9457563254271857E1
1.727228171849207E1 -1.9467663618315854E1
1.7281792324232164E1 -1.9477710729833742E1
1.7291364109048736E1 -1.9487640882843003E1
1.7300948086040563E1 -1.94975700348863E1
1.7325503729490976E1 -1.9469162176605803E1
1.7334961698742255E1 -1.948028253868597E1
1.7344576614286158E1 -1.9491237931639425E1
1.7354316615178604E1 -1.950208577002053E1
1.7334817619796617E1 -1.955975822708287E1
1.7344051643997627E1 -1.957054888493154E1
1.7353284431441406E1 -1.958135032127603E1
1.7362520492184746E1 -1.959214952615308E1
1.7371759776985296E1 -1.960295346567778E1
1.738099447715377E1 -1.9613769443297805E1
1.7390239041133352E1 -1.962457033654214E1
1.739948589450541E1 -1.963537881549716E1
1.7408734015273122E1 -1.964618424355342E1
1.7417989187424432E1 -1.965698265348813E1
1.742724041481794E1 -1.966779634589924E1
1.7436489330986387E1 -1.9678611399218276E1
1.744575516593443E1 -1.968940557791599E1
1.7455011089158006E1 -1.9700219851152134E1
1.7464273104735998E1 -1.9711028452379082E1
1.7473537956314154E1 -1.9721835384826587E1
1.748279915409027E1 -1.9732651718931574E1
1.749206737774394E1 -1.9743461497493207E1
1.7501337608989143E1 -1.9754273100772064E1
1.7510592288110477E1 -1.9765112817050735E1
1.7519866923636176E1 -1.9775925287473896E1
1.7529127406184575E1 -1.9786765088949146E1
1.753839330150701E1 -1.979760286392072E1
1.754764811343879E1 -1.980845661147451E1
1.7556909087682886E1 -1.981930946151941E1
1.756617011501359E1 -1.983016863847397E1
1.757541603347711E1 -1.9841048419380243E1
1.758465233298825E1 -1.9851950532167486E1
1.7593893150675775E1 -1.9862849770617814E1
1.76031257039382E1 -1.9873767135492866E1
1.7612341010678577E1 -1.988471287928251E1
1.762133139453918E1 -1.9892001192953334E1
1.7630329158985706E1 -1.9903336023282808E1
1.763880630433765E1 -1.9915279447436113E1
1.7646043519130124E1 -1.9928691946322278E1
1.765324120331015E1 -1.9942203165567715E1
1.766050013008027E1 -1.9955687986536E1
1.766779253888791E1 -1.9969176491148346E1
1.767505101720177E1 -1.9982759009645516E1
1.7682364244151735E1 -1.99963139317061E1
1.7689679854156115E1 -2.000991166341304E1
1.7682133230695754E1 -2.004428484006465E1
1.769143881160042E1 -2.00541069534043E1
1.7700762757053567E1 -2.006394380219712E1
1.7710100548892573E1 -2.0073805891414523E1
1.771944460820404E1 -2.008371102511114E1
1.7728809982549503E1 -2.009362681030295E1
1.7738177526861943E1 -2.0103589927641092E1
1.7747550730895334E1 -2.0113594090328974E1
1.7756940281755046E1 -2.0123615229045523E1
1.776632643245133E1 -2.0133695583866302E1
1.7775717695812354E1 -2.014381240437254E1
1.7785105236774044E1 -2.0153982992188762E1
1.7794483403275933E1 -2.0164213210150884E1
1.780386295422284E1 -2.0174484148249643E1
1.7813234714487404E1 -2.018480781029832E1
1.7822599655775683E1 -2.0195182080688838E1
1.7831952673931788E1 -2.0205612372284083E1
1.7841293279368013E1 -2.0216096245724177E1
1.785062227000114E1 -2.0226631555080928E1
1.7859928845998887E1 -2.023722947124158E1
1.786922399480962E1 -2.024787386383271E1
1.7878501891514986E1 -2.0258571004514913E1
1.788775175670555E1 -2.0269331153391768E1
1.7896989464381257E1 -2.028013304268986E1
1.7906201787124818E1 -2.0290989141346675E1
1.7915382769314782E1 -2.030190508250236E1
1.792454891301412E1 -2.0312860653763966E1
1.7933684303720426E1 -2.0323870020978305E1
1.794278486756551E1 -2.033493428327884E1
1.7951866016815643E1 -2.0346037669530656E1
1.7915793768570158E1 -2.047360799169159E1
1.7869105450898196E1 -2.036160082375534E1
1.790738232024585E1 -2.038188152011385E1
1.792776789848726E1 -2.0395087439231343E1
1.7929805799384802E1 -2.0406955418080983E1
1.7932096470432043E1 -2.0418700380623157E1
1.7935052307565943E1 -2.0430354237193953E1
1.7938544159998266E1 -2.0441937317019807E1
1.7942683206765523E1 -2.045347911317883E1
1.7947528954983916E1 -2.0465004124512344E1
1.7953151752222137E1 -2.047654722789846E1
1.7959611102414453E1 -2.0488137980429798E1
1.8042314636623292E1 -2.0496034982649153E1
1.804707033292541E1 -2.050836500827673E1
1.805322174415501E1 -2.0520521057121556E1
1.806100055244906E1 -2.0532518160639217E1
1.807044452289308E1 -2.054435981031441E1
1.8081424681125462E1 -2.0556023289228712E1
1.8093749500467354E1 -2.056746051382582E1
1.8107076196717173E1 -2.0578629087355388E1
1.808190972404666E1 -2.0588493549107575E1
1.8092205086856247E1 -2.0600754027210836E1
1.8101582674097134E1 -2.06129663337416E1
1.811079374083799E1 -2.0625191982638388E1
1.8124145646788268E1 -2.0637661233093905E1
1.817149493728401E1 -2.0646747838211514E1
1.8180974444873073E1 -2.065809044717793E1
1.8190576627682685E1 -2.06693987874867E1
1.8098548746722823E1 -2.0595006520497034E1
1.81384937654319E1 -2.0632053058704106E1
1.8175658747203766E1 -2.0667508677514597E1
1.8122708562915683E1 -2.0684048230287342E1
1.817598189432919E1 -2.0680852555279472E1
1.8217847915753538E1 -2.0727806401365513E1
1.8239894687859113E1 -2.0753009607226282E1
